>> Start of run:   9-NOV-2022  10:20:35

reinit: Reading from standard input
reinit: Dumped input in INPUT_TMP.02632
************************** Dump of input data file ****************************
SystemName LiC6_scf
SystemLabel LiC6_scf
NumberOfAtoms   7
NumberOfSpecies 2
%block ChemicalSpeciesLabel
1  3   Li-gga
2  6   C-gga
%endblock ChemicalSpeciesLabel
PAO.BasisSize  DZ
PAO.EnergyShift  10 meV
%block PS.Lmax
C-gga   2
Li-gga  2
%endblock PS.Lmax
LatticeConstant 1.000000 Ang
%block LatticeVectors
	4.3161300000	0.0000000000	0.0000000000
	-2.1580650000	3.7378782260	0.0000000000
	0.0000000000	0.0000000000	4.6618236000
%endblock LatticeVectors
AtomicCoordinatesFormat Ang
%block AtomicCoordinatesAndAtomicSpecies
	0.00000000	0.00000000	0.00000000	2
	-0.70288177	1.21742694	2.33091180	1
	-1.45518323	2.52045129	2.33091180	1
	1.45518323	2.52045129	2.33091180	1
	0.70288177	1.21742694	2.33091180	1
	1.40576354	0.00000000	2.33091180	1
	2.91036646	0.00000000	2.33091180	1
%endblock AtomicCoordinatesAndAtomicSpecies
Kgrid_NoTRS  T
%block kgrid_MonkhorstPack
3       0       0       0.0
0       3       0       0.0
0       0       3       0.0
%endblock kgrid_MonkhorstPack
AtomCoorFormatOut Ang
BlockSize 1
#ProcessorY 12
Diag.ParallelOverK   T
Diag.DivideAndConquer F
MeshCutoff   300 Ry
SCF.FreeE.Tolerance 1E-3 eV
SCF.EDM.Tolerance   5E-3 eV
DM.Tolerance  1E-3
DM.Require.Energy.Convergence T
DM.NumberPulay 4
XC.Functional GGA
XC.Authors    PBE
UseSaveData        F
MD.TypeOfRun       CG
MD.VariableCell    F
MD.NumCGsteps      00
MD.MaxCGDispl      0.200000 Bohr
MD.MaxStressTol    1.000000 GPa
MD.MaxForceTol     0.010000 eV/Ang
WriteMDHistory T
WriteCoorStep T
WriteForces T
WriteCoorStep    T
WriteEigenValues T
WriteDM    F
MM.UnitsDistance Ang  # what this program prints out DO NOT CHANGE
MM.UnitsEnergy    eV  # what this program prints out DO NOT CHANGE
MM.Grimme.S6     0.75 # Grimme-paper for PBE (correct for your functional)
MM.Grimme.D     20.   # Grimme-paper (correct for your functional)
%block MM.Potentials
  1   1 Grimme     16.69      1.650 # Li, 10.1002/jcc.20495
  1   2 Grimme     17.40      2.277 # Li / C
  2   2 Grimme     18.14      2.904 # C, 10.1002/jcc.20495
%endblock MM.Potentials
#%block ProjectedDensityOfStates
# -200.0  120.0  0.4  12800  eV
#%endblock ProjectedDensityOfStates
************************** End of input data file *****************************

reinit: -----------------------------------------------------------------------
reinit: System Name: LiC6_scf
reinit: -----------------------------------------------------------------------
reinit: System Label: LiC6_scf
reinit: -----------------------------------------------------------------------
Reading two-body potentials
Grimme - two-body potential between 1 and 1
Grimme - two-body potential between 1 and 2
Grimme - two-body potential between 2 and 2

initatom: Reading input for the pseudopotentials and atomic orbitals ----------
Species number:   1 Atomic number:    3 Label: Li-gga
Species number:   2 Atomic number:    6 Label: C-gga

Ground state valence configuration:   2s01
Reading pseudopotential information in formatted form from Li-gga.psf

Valence configuration for pseudopotential generation:
2s( 1.00) rc: 2.28
2p( 0.00) rc: 2.28
3d( 0.00) rc: 2.59
4f( 0.00) rc: 2.59
Ground state valence configuration:   2s02  2p02
Reading pseudopotential information in formatted form from C-gga.psf

Valence configuration for pseudopotential generation:
2s( 2.00) rc: 1.56
2p( 2.00) rc: 1.56
3d( 0.00) rc: 1.56
4f( 0.00) rc: 1.56
relmxkb: Read Max KB Ang. Momentum=    2 for species C-gga
relmxkb: Read Max KB Ang. Momentum=    2 for species Li-gga

<basis_specs>
Li-gga               Z=   3    Mass=  6.9400        Charge= 0.17977+309
Lmxo=0 Lmxkb= 2    BasisType=split      Semic=F
L=0  Nsemic=0  Cnfigmx=2
          i=1  nzeta=2  polorb=0  (2s)
            splnorm:   0.15000
               vcte:    0.0000
               rinn:    0.0000
               qcoe:    0.0000
               qyuk:    0.0000
               qwid:   0.10000E-01
                rcs:    0.0000      0.0000
            lambdas:    1.0000      1.0000
L=0  Nkbl=1  erefs: 0.17977+309
L=1  Nkbl=1  erefs: 0.17977+309
L=2  Nkbl=1  erefs: 0.17977+309
</basis_specs>

atom: Called for Li-gga                (Z =   3)

read_vps: Pseudopotential generation method:
read_vps: ATM 3.2.2 Troullier-Martins
Valence charge for ps generation:    1.00000

read_vps: Pseudopotential includes a core correction:
read_vps: Pseudo-core for xc-correction

xc_check: Exchange-correlation functional:
xc_check: GGA Perdew, Burke & Ernzerhof 1996
V l=0 = -2*Zval/r beyond r=  2.2278
V l=1 = -2*Zval/r beyond r=  2.2278
V l=2 = -2*Zval/r beyond r=  2.5245
All V_l potentials equal beyond r=  2.4622
This should be close to max(r_c) in ps generation
All pots = -2*Zval/r beyond r=  2.5245

VLOCAL1: 99.0% of the norm of Vloc inside      7.160 Ry
VLOCAL1: 99.9% of the norm of Vloc inside     16.318 Ry
atom: Maximum radius for 4*pi*r*r*local-pseudopot. charge    2.86079
atom: Maximum radius for r*vlocal+2*Zval:    2.43160
GHOST: No ghost state for L =  0
GHOST: No ghost state for L =  1
GHOST: No ghost state for L =  2

KBgen: Kleinman-Bylander projectors:
   l= 0   rc=  2.654023   el= -0.211234   Ekb=  1.742119   kbcos=  0.228463
   l= 1   rc=  2.721230   el= -0.080095   Ekb= -1.122375   kbcos= -0.147941
   l= 2   rc=  2.825246   el=  0.002001   Ekb= -0.207076   kbcos= -0.031965

KBgen: Total number of Kleinman-Bylander projectors:    9
atom: -------------------------------------------------------------------------

atom: SANKEY-TYPE ORBITALS:
atom: Selected multiple-zeta basis: split

SPLIT: Orbitals with angular momentum L= 0

SPLIT: Basis orbitals for state 2s

SPLIT: PAO cut-off radius determined from an
SPLIT: energy shift=  0.000735 Ry

   izeta = 1
                 lambda =    1.000000
                     rc =   11.897381
                 energy =   -0.210580
                kinetic =    0.143382
    potential(screened) =   -0.353962
       potential(ionic) =   -0.533453

   izeta = 2
                 rmatch =    8.489163
              splitnorm =    0.150000
                 energy =   -0.186081
                kinetic =    0.225882
    potential(screened) =   -0.411964
       potential(ionic) =   -0.593024
atom: Total number of Sankey-type orbitals:  2

atm_pop: Valence configuration (for local Pseudopot. screening):
 2s( 1.00)
Vna: chval, zval:    1.00000   1.00000

Vna:  Cut-off radius for the neutral-atom potential:  11.897381
comcore: Pseudo-core radius Rcore=  3.450946

atom: _________________________________________________________________________

<basis_specs>
C-gga                Z=   6    Mass=  12.010        Charge= 0.17977+309
Lmxo=1 Lmxkb= 2    BasisType=split      Semic=F
L=0  Nsemic=0  Cnfigmx=2
          i=1  nzeta=2  polorb=0  (2s)
            splnorm:   0.15000
               vcte:    0.0000
               rinn:    0.0000
               qcoe:    0.0000
               qyuk:    0.0000
               qwid:   0.10000E-01
                rcs:    0.0000      0.0000
            lambdas:    1.0000      1.0000
L=1  Nsemic=0  Cnfigmx=2
          i=1  nzeta=2  polorb=0  (2p)
            splnorm:   0.15000
               vcte:    0.0000
               rinn:    0.0000
               qcoe:    0.0000
               qyuk:    0.0000
               qwid:   0.10000E-01
                rcs:    0.0000      0.0000
            lambdas:    1.0000      1.0000
L=0  Nkbl=1  erefs: 0.17977+309
L=1  Nkbl=1  erefs: 0.17977+309
L=2  Nkbl=1  erefs: 0.17977+309
</basis_specs>

atom: Called for C-gga                 (Z =   6)

read_vps: Pseudopotential generation method:
read_vps: ATM 3.2.2 Troullier-Martins
Valence charge for ps generation:    4.00000

xc_check: Exchange-correlation functional:
xc_check: GGA Perdew, Burke & Ernzerhof 1996
V l=0 = -2*Zval/r beyond r=  1.5227
V l=1 = -2*Zval/r beyond r=  1.5227
V l=2 = -2*Zval/r beyond r=  1.5227
All V_l potentials equal beyond r=  1.4851
This should be close to max(r_c) in ps generation
All pots = -2*Zval/r beyond r=  1.5227

VLOCAL1: 99.0% of the norm of Vloc inside     19.682 Ry
VLOCAL1: 99.9% of the norm of Vloc inside     44.856 Ry
atom: Maximum radius for 4*pi*r*r*local-pseudopot. charge    1.79142
atom: Maximum radius for r*vlocal+2*Zval:    1.54183
GHOST: No ghost state for L =  0
GHOST: No ghost state for L =  1
GHOST: No ghost state for L =  2

KBgen: Kleinman-Bylander projectors:
   l= 0   rc=  1.661951   el= -1.010689   Ekb=  5.289847   kbcos=  0.316429
   l= 1   rc=  1.661951   el= -0.388490   Ekb= -4.102504   kbcos= -0.351025
   l= 2   rc=  1.747182   el=  0.001971   Ekb= -1.006005   kbcos= -0.008530

KBgen: Total number of Kleinman-Bylander projectors:    9
atom: -------------------------------------------------------------------------

atom: SANKEY-TYPE ORBITALS:
atom: Selected multiple-zeta basis: split

[...]

SPLIT: Basis orbitals for state 2s

[...]

   izeta = 2
                 rmatch =    3.518811
              splitnorm =    0.150000
                 energy =   -0.877891
                kinetic =    1.289227
    potential(screened) =   -2.167118
       potential(ionic) =   -5.982073

SPLIT: Orbitals with angular momentum L= 1

SPLIT: Basis orbitals for state 2p

SPLIT: PAO cut-off radius determined from an
SPLIT: energy shift=  0.000735 Ry

   izeta = 1
                 lambda =    1.000000
                     rc =    7.638387
                 energy =   -0.387843
                kinetic =    2.314739
    potential(screened) =   -2.702582
       potential(ionic) =   -6.092371

   izeta = 2
                 rmatch =    3.840617
              splitnorm =    0.150000
                 energy =   -0.270479
                kinetic =    3.438347
    potential(screened) =   -3.708826
       potential(ionic) =   -7.497707
atom: Total number of Sankey-type orbitals:  8

atm_pop: Valence configuration (for local Pseudopot. screening):
 2s( 2.00)
 2p( 2.00)
Vna: chval, zval:    4.00000   4.00000

Vna:  Cut-off radius for the neutral-atom potential:   7.638387

atom: _________________________________________________________________________

prinput: Basis input ----------------------------------------------------------

PAO.BasisType split

%block ChemicalSpeciesLabel
    1    3 Li-gga                  # Species index, atomic number, species label
    2    6 C-gga                   # Species index, atomic number, species label
%endblock ChemicalSpeciesLabel

%block PAO.Basis                 # Define Basis set
Li-gga                1                    # Species label, number of l-shells
 n=2   0   2                         # n, l, Nzeta
  11.897      8.489
   1.000      1.000
C-gga                 2                    # Species label, number of l-shells
 n=2   0   2                         # n, l, Nzeta
   5.949      3.519
   1.000      1.000
 n=2   1   2                         # n, l, Nzeta
   7.638      3.841
   1.000      1.000
%endblock PAO.Basis

prinput: ----------------------------------------------------------------------

coor:   Atomic-coordinates input format  =     Cartesian coordinates
coor:                                          (in Angstroms)

siesta: Atomic coordinates (Bohr) and species
siesta:      0.00000   0.00000   0.00000  2        1
siesta:     -1.32825   2.30060   4.40479  1        2
siesta:     -2.74990   4.76296   4.40479  1        3
siesta:      2.74990   4.76296   4.40479  1        4
siesta:      1.32825   2.30060   4.40479  1        5
siesta:      2.65651   0.00000   4.40479  1        6
siesta:      5.49980   0.00000   4.40479  1        7

siesta: System type = bulk

initatomlists: Number of atoms, orbitals, and projectors:      7    20    63

siesta: ******************** Simulation parameters ****************************
siesta:
siesta: The following are some of the parameters of the simulation.
siesta: A complete list of the parameters used, including default values,
siesta: can be found in file out.fdf
siesta:
redata: Spin configuration                          = none
redata: Number of spin components                   = 1
redata: Time-Reversal Symmetry                      = T
redata: Spin spiral                                 = F
redata: Long output                                 =   F
redata: Number of Atomic Species                    =        2
redata: Charge density info will appear in .RHO file
redata: Write Mulliken Pop.                         = NO
redata: Matel table size (NRTAB)                    =     1024
redata: Mesh Cutoff                                 =   300.0000 Ry
redata: Net charge of the system                    =     0.0000 |e|
redata: Min. number of SCF Iter                     =        0
redata: Max. number of SCF Iter                     =     1000
redata: SCF convergence failure will abort job
redata: SCF mix quantity                            = Hamiltonian
redata: Mix DM or H after convergence               =   F
redata: Recompute H after scf cycle                 =   F
redata: Mix DM in first SCF step                    =   T
redata: Write Pulay info on disk                    =   F
redata: New DM Occupancy tolerance                  = 0.000000000001
redata: No kicks to SCF
redata: DM Mixing Weight for Kicks                  =     0.5000
redata: Require Harris convergence for SCF          =   F
redata: Harris energy tolerance for SCF             =     0.000100 eV
redata: Require DM convergence for SCF              =   T
redata: DM tolerance for SCF                        =     0.001000
redata: Require EDM convergence for SCF             =   F
redata: EDM tolerance for SCF                       =     0.005000 eV
redata: Require H convergence for SCF               =   T
redata: Hamiltonian tolerance for SCF               =     0.001000 eV
redata: Require (free) Energy convergence for SCF   =   T
redata: (free) Energy tolerance for SCF             =     0.001000 eV
redata: Using Saved Data (generic)                  =   F
redata: Use continuation files for DM               =   F
redata: Neglect nonoverlap interactions             =   F
redata: Method of Calculation                       = Diagonalization
redata: Electronic Temperature                      =   299.9869 K
redata: Fix the spin of the system                  =   F
redata: Dynamics option                             = Single-point calculation
mix.SCF: Pulay mixing                            = Pulay
mix.SCF:    Variant                              = stable
mix.SCF:    History steps                        = 4
mix.SCF:    Linear mixing weight                 =     0.250000
mix.SCF:    Mixing weight                        =     0.250000
mix.SCF:    SVD condition                        = 0.1000E-07
redata: ***********************************************************************

%block SCF.Mixers
  Pulay
%endblock SCF.Mixers

%block SCF.Mixer.Pulay
  # Mixing method
  method pulay
  variant stable

  # Mixing options
  weight 0.2500
  weight.linear 0.2500
  history 4
%endblock SCF.Mixer.Pulay

DM_history_depth set to one: no extrapolation allowed by default for geometry relaxation
Size of DM history Fstack: 1
Total number of electrons:    10.000000
Total ionic charge:    10.000000

* ProcessorY, Blocksize:    2   1

* Orbital distribution balance (max,min):     5     5

 Kpoints in:           18 . Kpoints trimmed:           14

siesta: k-grid: Number of k-points =    14
siesta: k-grid: Cutoff (effective) =     6.474 Ang
siesta: k-grid: Supercell and displacements
siesta: k-grid:    3   0   0      0.000
siesta: k-grid:    0   3   0      0.000
siesta: k-grid:    0   0   3      0.000

diag: Algorithm                                     = Expert
diag: Parallel over k                               =   T
diag: Use parallel 2D distribution                  =   T
diag: Parallel block-size                           = 1
diag: Parallel distribution                         =     2 x     2
diag: Used triangular part                          = Lower
diag: Absolute tolerance                            =  0.100E-15
diag: Orthogonalization factor                      =  0.100E-05

superc: Internal auxiliary supercell:     9 x     9 x     7  =     567
superc: Number of atoms, orbitals, and projectors:   3969  11340  35721

ts: **************************************************************
ts: Save H and S matrices                           =    F
ts: Save DM and EDM matrices                        =    F
ts: Only save the overlap matrix S                  =    F
ts: **************************************************************

************************ Begin: TS CHECKS AND WARNINGS ************************
************************ End: TS CHECKS AND WARNINGS **************************

                        Single-point calculation

outcoor: Atomic coordinates (Ang):
    0.00000000    0.00000000    0.00000000   2       1  C-gga
   -0.70288177    1.21742694    2.33091180   1       2  Li-gga
   -1.45518323    2.52045129    2.33091180   1       3  Li-gga
    1.45518323    2.52045129    2.33091180   1       4  Li-gga
    0.70288177    1.21742694    2.33091180   1       5  Li-gga
    1.40576354    0.00000000    2.33091180   1       6  Li-gga
    2.91036646    0.00000000    2.33091180   1       7  Li-gga

superc: Internal auxiliary supercell:     9 x     9 x     7  =     567
superc: Number of atoms, orbitals, and projectors:   3969  11340  35721

outcell: Unit cell vectors (Ang):
        4.316130    0.000000    0.000000
       -2.158065    3.737878    0.000000
        0.000000    0.000000    4.661824

outcell: Cell vector modules (Ang)   :    4.316130    4.316130    4.661824
outcell: Cell angles (23,13,12) (deg):     90.0000     90.0000    120.0000
outcell: Cell volume (Ang**3)        :     75.2100
<dSpData1D:S at geom step 0
  <sparsity:sparsity for geom step 0
    nrows_g=20 nrows=5 sparsity=22.2525 nnzs=8901, refcount: 7>
  <dData1D:(new from dSpData1D) n=8901, refcount: 1>
refcount: 1>
new_DM -- step:     1
Initializing Density Matrix...
DM filled with atomic data:
<dSpData2D:DM initialized from atoms
  <sparsity:sparsity for geom step 0
    nrows_g=20 nrows=5 sparsity=22.2525 nnzs=8901, refcount: 8>
  <dData2D:DM n=8901 m=1, refcount: 1>
refcount: 1>
No. of atoms with KB's overlaping orbs in proc 0. Max # of overlaps:     242     263
New grid distribution:   1
           1       1:   20    1:   10    1:   13
           2       1:   20    1:   10   14:   25
           3       1:   20   11:   20    1:   13
           4       1:   20   11:   20   14:   25

InitMesh: MESH =    40 x    40 x    50 =       80000
InitMesh: (bp) =    20 x    20 x    25 =       10000
InitMesh: Mesh cutoff (required, used) =   300.000   316.498 Ry
ExtMesh (bp) on 0 =   156 x   146 x   149 =     3393624
New grid distribution:   2
           1       1:   20    1:   10    1:   12
           2       1:   20    1:   10   13:   25
           3       1:   20   11:   20    1:   12
           4       1:   20   11:   20   13:   25
New grid distribution:   3
           1       1:   20    1:   10    1:   13
           2       1:   20    1:   10   14:   25
           3       1:   20   11:   20    1:   13
           4       1:   20   11:   20   14:   25
Setting up quadratic distribution...
ExtMesh (bp) on 0 =   156 x   146 x   148 =     3370848
PhiOnMesh: Number of (b)points on node 0 =                 2400
PhiOnMesh: nlist on node 0 =               321668

stepf: Fermi-Dirac step function

siesta: Program's energy decomposition (eV):
siesta: Ebs     =      -105.495983
siesta: Eions   =       321.344870
siesta: Ena     =        93.193262
siesta: Ekin    =       132.769413
siesta: Enl     =        17.638724
siesta: Eso     =         0.000000
siesta: Edftu   =         0.000000
siesta: DEna    =         1.153779
siesta: DUscf   =         2.653984
siesta: DUext   =         0.000000
siesta: Exc     =       -98.790013
siesta: eta*DQ  =         0.000000
siesta: Emadel  =         0.000000
siesta: Emeta   =         0.000000
siesta: Emolmec =        -2.864885
siesta: Ekinion =         0.000000
siesta: Eharris =      -161.274187
siesta: Etot    =      -175.590607
siesta: FreeEng =      -175.593178

SCF Convergence by FreeE+DM+H criterion
|FreeE_i-FreeE_(i-1)| (eV) <     0.00100000
max |DM_out - DM_in|         :     0.0004344152
max |H_out - H_in|      (eV) :     0.0001527929
SCF cycle converged after 12 iterations

Using DM_out to compute the final energy and forces
No. of atoms with KB's overlaping orbs in proc 0. Max # of overlaps:     242     263

MM-Stress (kbar):       -3.40       -3.40       46.56        0.00        0.00        0.00

siesta: E_KS(eV) =             -177.2836

siesta: E_KS - E_eggbox =      -177.2836

siesta: Atomic forces (eV/Ang):
     1   -0.000000    0.000000    0.000000
     2    0.033301   -0.057694   -0.000000
     3   -0.033301    0.057694   -0.000000
     4    0.033259    0.057606   -0.000000
     5   -0.033259   -0.057606   -0.000000
     6   -0.066615   -0.000008   -0.000000
     7    0.066615    0.000008   -0.000000
   Tot    0.000000    0.000000    0.000000
   Max    0.066615
   Res    0.035590    sqrt( Sum f_i^2 / 3N )
   Max    0.066615    constrained

Stress tensor Voigt[x,y,z,yz,xz,xy] (kbar):    -1182.07    -1182.09      649.79        0.00       -0.00       -0.01
(Free)E + p*V (eV/cell)     -150.4884
Target enthalpy (eV/cell)     -177.3136

siesta: Eigenvalues (eV):
  ik is       eps
   1  1  -17.6455  -12.7269  -12.7269  -11.2731   -9.7509   -7.7775   -7.7774    1.2689    3.7790    3.7792
           5.0936   13.2741   17.2858   17.2858   20.5154   20.5154   21.4694   40.3243   40.3244   62.1985
   2  1  -17.7545  -12.9168  -11.6356  -10.4444   -8.9763   -7.6666   -4.0281   -1.6790    0.1810    0.5454
           7.5472    7.6062   14.9683   19.1929   19.4179   20.8064   21.7411   46.4919   50.2195   54.7718
   3  1  -17.7545  -12.9168  -11.6356  -10.4444   -8.9764   -7.6665   -4.0280   -1.6791    0.1810    0.5455
           7.5472    7.6063   14.9683   19.1929   19.4178   20.8063   21.7410   46.4919   50.2195   54.7718
   4  1  -17.7545  -12.9168  -11.6356  -10.4444   -8.9763   -7.6666   -4.0281   -1.6790    0.1810    0.5454
           7.5472    7.6062   14.9683   19.1929   19.4179   20.8064   21.7411   46.4919   50.2195   54.7718
   5  1  -17.9735  -12.3114  -11.6812   -8.4845   -8.4844   -3.0615   -1.2831    4.3562    4.3564    5.1412
           5.1413   10.0995   24.3227   24.4792   24.4793   29.2614   29.2615   34.2121   34.2121  199.0118
   6  1  -17.3830  -12.9837  -11.9832  -11.9832   -9.5840   -9.5839   -6.3617   -3.2059   -3.2057   -0.7271
          10.4265   10.6526   10.6528   14.9080   16.7245   16.7245   21.3762   23.0921   23.0922   25.0253
   7  1  -17.4464  -13.3742  -11.7380   -9.5742   -8.7209   -8.6956   -4.7539   -3.6429   -2.0731    2.6222
           4.7344    5.2554   10.9530   12.7348   21.0881   21.3440   22.8006   28.9319   36.9995   54.8097
   8  1  -17.4464  -13.3741  -11.7380   -9.5742   -8.7209   -8.6957   -4.7538   -3.6430   -2.0731    2.6223
           4.7342    5.2555   10.9530   12.7348   21.0881   21.3440   22.8006   28.9319   36.9995   54.8097
   9  1  -17.4464  -13.3742  -11.7380   -9.5742   -8.7209   -8.6956   -4.7539   -3.6429   -2.0731    2.6222
           4.7344    5.2554   10.9530   12.7348   21.0881   21.3440   22.8006   28.9319   36.9995   54.8097
  10  1  -17.6591  -13.8696   -9.5691   -8.3258   -8.3257   -6.0278   -0.4840   -0.4840    0.0787    0.0787
           2.2676    8.0100    8.0103   12.5422   16.6645   16.6646   24.1147   24.1147   24.1544   51.0048
  11  1  -17.4464  -13.3742  -11.7380   -9.5742   -8.7209   -8.6956   -4.7539   -3.6429   -2.0731    2.6222
           4.7344    5.2554   10.9530   12.7348   21.0881   21.3440   22.8006   28.9319   36.9995   54.8097
  12  1  -17.4464  -13.3741  -11.7380   -9.5742   -8.7209   -8.6957   -4.7538   -3.6430   -2.0731    2.6223
           4.7342    5.2555   10.9530   12.7348   21.0881   21.3440   22.8006   28.9319   36.9995   54.8097
  13  1  -17.4464  -13.3742  -11.7380   -9.5742   -8.7209   -8.6956   -4.7539   -3.6429   -2.0731    2.6222
           4.7344    5.2554   10.9530   12.7348   21.0881   21.3440   22.8006   28.9319   36.9995   54.8097
  14  1  -17.3830  -12.9837  -11.9832  -11.9832   -9.5840   -9.5839   -6.3617   -3.2059   -3.2057   -0.7271
          10.4265   10.6526   10.6528   14.9080   16.7245   16.7245   21.3762   23.0921   23.0922   25.0253
siesta: Fermi energy =      -8.699039 eV

siesta: Program's energy decomposition (eV):
siesta: Ebs     =      -123.283488
siesta: Eions   =       321.344870
siesta: Ena     =        93.193262
siesta: Ekin    =       118.585936
siesta: Enl     =        24.792112
siesta: Eso     =         0.000000
siesta: Edftu   =         0.000000
siesta: DEna    =         5.661931
siesta: DUscf   =         0.345884
siesta: DUext   =         0.000000
siesta: Exc     =       -95.653011
siesta: eta*DQ  =         0.000000
siesta: Emadel  =         0.000000
siesta: Emeta   =         0.000000
siesta: Emolmec =        -2.864885
siesta: Ekinion =         0.000000
siesta: Eharris =      -177.283642
siesta: Etot    =      -177.283641
siesta: FreeEng =      -177.313581

siesta: Final energy (eV):
siesta:  Band Struct. =    -123.283488
siesta:       Kinetic =     118.585936
siesta:       Hartree =      42.904017
siesta:       Edftu   =       0.000000
siesta:       Eso     =       0.000000
siesta:    Ext. field =       0.000000
siesta:   Exch.-corr. =     -95.653011
siesta:  Ion-electron =    -223.522888
siesta:       Ion-ion =     -16.732810
siesta:       Ekinion =       0.000000
siesta:         Total =    -177.283641
siesta:         Fermi =      -8.699039

siesta: Atomic forces (eV/Ang):
siesta:      1   -0.000000    0.000000    0.000000
siesta:      2    0.033301   -0.057694   -0.000000
siesta:      3   -0.033301    0.057694   -0.000000
siesta:      4    0.033259    0.057606   -0.000000
siesta:      5   -0.033259   -0.057606   -0.000000
siesta:      6   -0.066615   -0.000008   -0.000000
siesta:      7    0.066615    0.000008   -0.000000
siesta: ----------------------------------------
siesta:    Tot    0.000000    0.000000    0.000000

siesta: Stress tensor (static) (eV/Ang**3):
siesta:    -0.737781   -0.000009   -0.000000
siesta:    -0.000009   -0.737792    0.000000
siesta:    -0.000000    0.000000    0.405560

siesta: Cell volume =         75.209985 Ang**3

siesta: Pressure (static):
siesta:                Solid            Molecule  Units
siesta:           0.00388460          0.00387010  Ry/Bohr**3
siesta:           0.35667106          0.35533906  eV/Ang**3
siesta:         571.45621587        569.32208957  kBar
(Free)E+ p_basis*V_orbitals  =        -166.054263
(Free)Eharris+ p_basis*V_orbitals  =        -166.054265

cite: Please see "LiC6_scf.bib" for an exhaustive BiBTeX file.
cite: Please clearly indicate Siesta version in published work: 4.1.5
cite: This calculation has made use of the following articles
cite: which are encouraged to be cited in a published work.
        Primary SIESTA paper
          DOI: www.doi.org/10.1088/0953-8984/14/11/302

>> End of run:   9-NOV-2022  10:20:50
Job completed