>> Start of run:   9-NOV-2022   3:49:52

reinit: Reading from standard input
reinit: Dumped input in INPUT_TMP.59959
************************** Dump of input data file ****************************
SystemName LiC6_scf
SystemLabel LiC6_scf
NumberOfAtoms   7
NumberOfSpecies 2
%block ChemicalSpeciesLabel
1  3   Li-gga
2  6   C-gga
%endblock ChemicalSpeciesLabel
PAO.BasisSize  DZP
PAO.EnergyShift  10 meV
%block PS.Lmax
C-gga   2
Li-gga  2
%endblock PS.Lmax
LatticeConstant 1.000000 Ang
%block LatticeVectors
	4.3161300000	0.0000000000	0.0000000000
	-2.1580650000	3.7378782260	0.0000000000
	0.0000000000	0.0000000000	4.1438432000
%endblock LatticeVectors
AtomicCoordinatesFormat Ang
%block AtomicCoordinatesAndAtomicSpecies
	0.00000000	0.00000000	0.00000000	2
	-0.70288177	1.21742694	2.07192160	1
	-1.45518323	2.52045129	2.07192160	1
	1.45518323	2.52045129	2.07192160	1
	0.70288177	1.21742694	2.07192160	1
	1.40576354	0.00000000	2.07192160	1
	2.91036646	0.00000000	2.07192160	1
%endblock AtomicCoordinatesAndAtomicSpecies
Kgrid_NoTRS  T
%block kgrid_MonkhorstPack
2       0       0       0.0
0       2       0       0.0
0       0       2       0.0
%endblock kgrid_MonkhorstPack
AtomCoorFormatOut Ang
BlockSize 1
#ProcessorY 12
Diag.ParallelOverK   T
Diag.DivideAndConquer F
MeshCutoff   300 Ry
SCF.FreeE.Tolerance 1E-3 eV
SCF.EDM.Tolerance   5E-3 eV
DM.Tolerance  1E-3
DM.Require.Energy.Convergence T
DM.NumberPulay 4
XC.Functional GGA
XC.Authors    PBE
UseSaveData        F
MD.TypeOfRun       CG
MD.VariableCell    F
MD.NumCGsteps      00
MD.MaxCGDispl      0.200000 Bohr
MD.MaxStressTol    1.000000 GPa
MD.MaxForceTol     0.010000 eV/Ang
WriteMDHistory T
WriteCoorStep T
WriteForces T
WriteCoorStep    T
WriteEigenValues T
WriteDM    F
MM.UnitsDistance Ang  # what this program prints out DO NOT CHANGE
MM.UnitsEnergy    eV  # what this program prints out DO NOT CHANGE
MM.Grimme.S6     0.75 # Grimme-paper for PBE (correct for your functional)
MM.Grimme.D     20.   # Grimme-paper (correct for your functional)
%block MM.Potentials
  1   1 Grimme     16.69      1.650 # Li, 10.1002/jcc.20495
  1   2 Grimme     17.40      2.277 # Li / C
  2   2 Grimme     18.14      2.904 # C, 10.1002/jcc.20495
%endblock MM.Potentials
#%block ProjectedDensityOfStates
# -200.0  120.0  0.4  12800  eV
#%endblock ProjectedDensityOfStates
************************** End of input data file *****************************

reinit: -----------------------------------------------------------------------
reinit: System Name: LiC6_scf
reinit: -----------------------------------------------------------------------
reinit: System Label: LiC6_scf
reinit: -----------------------------------------------------------------------
Reading two-body potentials
Grimme - two-body potential between 1 and 1
Grimme - two-body potential between 1 and 2
Grimme - two-body potential between 2 and 2

initatom: Reading input for the pseudopotentials and atomic orbitals ----------
Species number:   1 Atomic number:    3 Label: Li-gga
Species number:   2 Atomic number:    6 Label: C-gga

Ground state valence configuration:   2s01
Reading pseudopotential information in formatted form from Li-gga.psf

Valence configuration for pseudopotential generation:
2s( 1.00) rc: 2.28
2p( 0.00) rc: 2.28
3d( 0.00) rc: 2.59
4f( 0.00) rc: 2.59
Ground state valence configuration:   2s02  2p02
Reading pseudopotential information in formatted form from C-gga.psf

Valence configuration for pseudopotential generation:
2s( 2.00) rc: 1.56
2p( 2.00) rc: 1.56
3d( 0.00) rc: 1.56
4f( 0.00) rc: 1.56
relmxkb: Read Max KB Ang. Momentum=    2 for species C-gga
relmxkb: Read Max KB Ang. Momentum=    2 for species Li-gga

<basis_specs>
Li-gga               Z=   3    Mass=  6.9400        Charge= 0.17977+309
Lmxo=0 Lmxkb= 2    BasisType=split      Semic=F
L=0  Nsemic=0  Cnfigmx=2
          i=1  nzeta=2  polorb=1  (2s)
            splnorm:   0.15000
               vcte:    0.0000
               rinn:    0.0000
               qcoe:    0.0000
               qyuk:    0.0000
               qwid:   0.10000E-01
                rcs:    0.0000      0.0000
            lambdas:    1.0000      1.0000
L=0  Nkbl=1  erefs: 0.17977+309
L=1  Nkbl=1  erefs: 0.17977+309
L=2  Nkbl=1  erefs: 0.17977+309
</basis_specs>

atom: Called for Li-gga                (Z =   3)

read_vps: Pseudopotential generation method:
read_vps: ATM 3.2.2 Troullier-Martins
Valence charge for ps generation:    1.00000

read_vps: Pseudopotential includes a core correction:
read_vps: Pseudo-core for xc-correction

xc_check: Exchange-correlation functional:
xc_check: GGA Perdew, Burke & Ernzerhof 1996
V l=0 = -2*Zval/r beyond r=  2.2278
V l=1 = -2*Zval/r beyond r=  2.2278
V l=2 = -2*Zval/r beyond r=  2.5245
All V_l potentials equal beyond r=  2.4622
This should be close to max(r_c) in ps generation
All pots = -2*Zval/r beyond r=  2.5245

VLOCAL1: 99.0% of the norm of Vloc inside      7.160 Ry
VLOCAL1: 99.9% of the norm of Vloc inside     16.318 Ry
atom: Maximum radius for 4*pi*r*r*local-pseudopot. charge    2.86079
atom: Maximum radius for r*vlocal+2*Zval:    2.43160
GHOST: No ghost state for L =  0
GHOST: No ghost state for L =  1
GHOST: No ghost state for L =  2

KBgen: Kleinman-Bylander projectors:
   l= 0   rc=  2.654023   el= -0.211234   Ekb=  1.742119   kbcos=  0.228463
   l= 1   rc=  2.721230   el= -0.080095   Ekb= -1.122375   kbcos= -0.147941
   l= 2   rc=  2.825246   el=  0.002001   Ekb= -0.207076   kbcos= -0.031965

KBgen: Total number of Kleinman-Bylander projectors:    9
atom: -------------------------------------------------------------------------

atom: SANKEY-TYPE ORBITALS:
atom: Selected multiple-zeta basis: split

SPLIT: Orbitals with angular momentum L= 0

SPLIT: Basis orbitals for state 2s

SPLIT: PAO cut-off radius determined from an
SPLIT: energy shift=  0.000735 Ry

   izeta = 1
                 lambda =    1.000000
                     rc =   11.897381
                 energy =   -0.210580
                kinetic =    0.143382
    potential(screened) =   -0.353962
       potential(ionic) =   -0.533453

   izeta = 2
                 rmatch =    8.489163
              splitnorm =    0.150000
                 energy =   -0.186081
                kinetic =    0.225882
    potential(screened) =   -0.411964
       potential(ionic) =   -0.593024

POLgen: Perturbative polarization orbital with L=  1

POLgen: Polarization orbital for state 2s

   izeta = 1
                     rc =   11.897381
                 energy =   -0.027011
                kinetic =    0.282985
    potential(screened) =   -0.309997
       potential(ionic) =   -0.490997
atom: Total number of Sankey-type orbitals:  5

atm_pop: Valence configuration (for local Pseudopot. screening):
 2s( 1.00)
Vna: chval, zval:    1.00000   1.00000

Vna:  Cut-off radius for the neutral-atom potential:  11.897381
comcore: Pseudo-core radius Rcore=  3.450946

atom: _________________________________________________________________________

<basis_specs>
C-gga                Z=   6    Mass=  12.010        Charge= 0.17977+309
Lmxo=1 Lmxkb= 2    BasisType=split      Semic=F
L=0  Nsemic=0  Cnfigmx=2
          i=1  nzeta=2  polorb=0  (2s)
            splnorm:   0.15000
               vcte:    0.0000
               rinn:    0.0000
               qcoe:    0.0000
               qyuk:    0.0000
               qwid:   0.10000E-01
                rcs:    0.0000      0.0000
            lambdas:    1.0000      1.0000
L=1  Nsemic=0  Cnfigmx=2
          i=1  nzeta=2  polorb=1  (2p)
            splnorm:   0.15000
               vcte:    0.0000
               rinn:    0.0000
               qcoe:    0.0000
               qyuk:    0.0000
               qwid:   0.10000E-01
                rcs:    0.0000      0.0000
            lambdas:    1.0000      1.0000
L=0  Nkbl=1  erefs: 0.17977+309
L=1  Nkbl=1  erefs: 0.17977+309
L=2  Nkbl=1  erefs: 0.17977+309
</basis_specs>

atom: Called for C-gga                 (Z =   6)

read_vps: Pseudopotential generation method:
read_vps: ATM 3.2.2 Troullier-Martins
Valence charge for ps generation:    4.00000

xc_check: Exchange-correlation functional:
xc_check: GGA Perdew, Burke & Ernzerhof 1996
V l=0 = -2*Zval/r beyond r=  1.5227
V l=1 = -2*Zval/r beyond r=  1.5227
V l=2 = -2*Zval/r beyond r=  1.5227
All V_l potentials equal beyond r=  1.4851
This should be close to max(r_c) in ps generation
All pots = -2*Zval/r beyond r=  1.5227

VLOCAL1: 99.0% of the norm of Vloc inside     19.682 Ry
VLOCAL1: 99.9% of the norm of Vloc inside     44.856 Ry
atom: Maximum radius for 4*pi*r*r*local-pseudopot. charge    1.79142
atom: Maximum radius for r*vlocal+2*Zval:    1.54183
GHOST: No ghost state for L =  0
GHOST: No ghost state for L =  1
GHOST: No ghost state for L =  2

KBgen: Kleinman-Bylander projectors:
   l= 0   rc=  1.661951   el= -1.010689   Ekb=  5.289847   kbcos=  0.316429
   l= 1   rc=  1.661951   el= -0.388490   Ekb= -4.102504   kbcos= -0.351025
   l= 2   rc=  1.747182   el=  0.001971   Ekb= -1.006005   kbcos= -0.008530

KBgen: Total number of Kleinman-Bylander projectors:    9
atom: -------------------------------------------------------------------------

atom: SANKEY-TYPE ORBITALS:
atom: Selected multiple-zeta basis: split

[...]

SPLIT: Basis orbitals for state 2s

[...]

SPLIT: Orbitals with angular momentum L= 1

SPLIT: Basis orbitals for state 2p

SPLIT: PAO cut-off radius determined from an
SPLIT: energy shift=  0.000735 Ry

   izeta = 1
                 lambda =    1.000000
                     rc =    7.638387
                 energy =   -0.387843
                kinetic =    2.314739
    potential(screened) =   -2.702582
       potential(ionic) =   -6.092371

   izeta = 2
                 rmatch =    3.840617
              splitnorm =    0.150000
                 energy =   -0.270479
                kinetic =    3.438347
    potential(screened) =   -3.708826
       potential(ionic) =   -7.497707

POLgen: Perturbative polarization orbital with L=  2

POLgen: Polarization orbital for state 2p

   izeta = 1
                     rc =    7.638387
                 energy =    0.921402
                kinetic =    1.955040
    potential(screened) =   -1.033637
       potential(ionic) =   -3.679558
atom: Total number of Sankey-type orbitals: 13

atm_pop: Valence configuration (for local Pseudopot. screening):
 2s( 2.00)
 2p( 2.00)
Vna: chval, zval:    4.00000   4.00000

Vna:  Cut-off radius for the neutral-atom potential:   7.638387

atom: _________________________________________________________________________

prinput: Basis input ----------------------------------------------------------

PAO.BasisType split

%block ChemicalSpeciesLabel
    1    3 Li-gga                  # Species index, atomic number, species label
    2    6 C-gga                   # Species index, atomic number, species label
%endblock ChemicalSpeciesLabel

%block PAO.Basis                 # Define Basis set
Li-gga                1                    # Species label, number of l-shells
 n=2   0   2 P   1                   # n, l, Nzeta, Polarization, NzetaPol
  11.897      8.489
   1.000      1.000
C-gga                 2                    # Species label, number of l-shells
[...]
coor:                                          (in Angstroms)

siesta: Atomic coordinates (Bohr) and species
siesta:      0.00000   0.00000   0.00000  2        1
siesta:     -1.32825   2.30060   3.91537  1        2
siesta:     -2.74990   4.76296   3.91537  1        3
siesta:      2.74990   4.76296   3.91537  1        4
siesta:      1.32825   2.30060   3.91537  1        5
siesta:      2.65651   0.00000   3.91537  1        6
siesta:      5.49980   0.00000   3.91537  1        7

siesta: System type = bulk

initatomlists: Number of atoms, orbitals, and projectors:      7    43    63

siesta: ******************** Simulation parameters ****************************
siesta:
siesta: The following are some of the parameters of the simulation.
siesta: A complete list of the parameters used, including default values,
siesta: can be found in file out.fdf
siesta:
redata: Spin configuration                          = none
redata: Number of spin components                   = 1
redata: Time-Reversal Symmetry                      = T
redata: Spin spiral                                 = F
redata: Long output                                 =   F
redata: Number of Atomic Species                    =        2
redata: Charge density info will appear in .RHO file
redata: Write Mulliken Pop.                         = NO
redata: Matel table size (NRTAB)                    =     1024
redata: Mesh Cutoff                                 =   300.0000 Ry
redata: Net charge of the system                    =     0.0000 |e|
redata: Min. number of SCF Iter                     =        0
redata: Max. number of SCF Iter                     =     1000
redata: SCF convergence failure will abort job
redata: SCF mix quantity                            = Hamiltonian
redata: Mix DM or H after convergence               =   F
redata: Recompute H after scf cycle                 =   F
redata: Mix DM in first SCF step                    =   T
redata: Write Pulay info on disk                    =   F
redata: New DM Occupancy tolerance                  = 0.000000000001
redata: No kicks to SCF
redata: DM Mixing Weight for Kicks                  =     0.5000
redata: Require Harris convergence for SCF          =   F
redata: Harris energy tolerance for SCF             =     0.000100 eV
redata: Require DM convergence for SCF              =   T
redata: DM tolerance for SCF                        =     0.001000
redata: Require EDM convergence for SCF             =   F
redata: EDM tolerance for SCF                       =     0.005000 eV
redata: Require H convergence for SCF               =   T
redata: Hamiltonian tolerance for SCF               =     0.001000 eV
redata: Require (free) Energy convergence for SCF   =   T
redata: (free) Energy tolerance for SCF             =     0.001000 eV
redata: Using Saved Data (generic)                  =   F
redata: Use continuation files for DM               =   F
redata: Neglect nonoverlap interactions             =   F
redata: Method of Calculation                       = Diagonalization
redata: Electronic Temperature                      =   299.9869 K
redata: Fix the spin of the system                  =   F
redata: Dynamics option                             = Single-point calculation
mix.SCF: Pulay mixing                            = Pulay
mix.SCF:    Variant                              = stable
mix.SCF:    History steps                        = 4
mix.SCF:    Linear mixing weight                 =     0.250000
mix.SCF:    Mixing weight                        =     0.250000
mix.SCF:    SVD condition                        = 0.1000E-07
redata: ***********************************************************************

%block SCF.Mixers
  Pulay
%endblock SCF.Mixers

%block SCF.Mixer.Pulay
  # Mixing method
  method pulay
  variant stable

  # Mixing options
  weight 0.2500
  weight.linear 0.2500
  history 4
%endblock SCF.Mixer.Pulay

DM_history_depth set to one: no extrapolation allowed by default for geometry relaxation
Size of DM history Fstack: 1
Total number of electrons:    10.000000
Total ionic charge:    10.000000

* ProcessorY, Blocksize:    2   1

* Orbital distribution balance (max,min):    11    10

k-point displ. along   1 input, could be:     0.00    0.50
k-point displ. along   2 input, could be:     0.00    0.50
k-point displ. along   3 input, could be:     0.00    0.50
 Kpoints in:            8 . Kpoints trimmed:            8

siesta: k-grid: Number of k-points =     8
siesta: k-grid: Cutoff (effective) =     4.144 Ang
siesta: k-grid: Supercell and displacements
siesta: k-grid:    2   0   0      0.000
siesta: k-grid:    0   2   0      0.000
siesta: k-grid:    0   0   2      0.000

diag: Algorithm                                     = Expert
diag: Parallel over k                               =   T
diag: Use parallel 2D distribution                  =   T
diag: Parallel block-size                           = 1
diag: Parallel distribution                         =     2 x     2
diag: Used triangular part                          = Lower
diag: Absolute tolerance                            =  0.100E-15
diag: Orthogonalization factor                      =  0.100E-05

superc: Internal auxiliary supercell:     9 x     9 x     7  =     567
superc: Number of atoms, orbitals, and projectors:   3969  24381  35721

ts: **************************************************************
ts: Save H and S matrices                           =    F
ts: Save DM and EDM matrices                        =    F
ts: Only save the overlap matrix S                  =    F
ts: **************************************************************

************************ Begin: TS CHECKS AND WARNINGS ************************
************************ End: TS CHECKS AND WARNINGS **************************

                        Single-point calculation

outcoor: Atomic coordinates (Ang):
    0.00000000    0.00000000    0.00000000   2       1  C-gga
   -0.70288177    1.21742694    2.07192160   1       2  Li-gga
   -1.45518323    2.52045129    2.07192160   1       3  Li-gga
    1.45518323    2.52045129    2.07192160   1       4  Li-gga
    0.70288177    1.21742694    2.07192160   1       5  Li-gga
    1.40576354    0.00000000    2.07192160   1       6  Li-gga
    2.91036646    0.00000000    2.07192160   1       7  Li-gga

superc: Internal auxiliary supercell:     9 x     9 x     7  =     567
superc: Number of atoms, orbitals, and projectors:   3969  24381  35721

outcell: Unit cell vectors (Ang):
        4.316130    0.000000    0.000000
       -2.158065    3.737878    0.000000
        0.000000    0.000000    4.143843

outcell: Cell vector modules (Ang)   :    4.316130    4.316130    4.143843
outcell: Cell angles (23,13,12) (deg):     90.0000     90.0000    120.0000
outcell: Cell volume (Ang**3)        :     66.8533
<dSpData1D:S at geom step 0
  <sparsity:sparsity for geom step 0
    nrows_g=43 nrows=11 sparsity=30.1504 nnzs=55748, refcount: 7>
  <dData1D:(new from dSpData1D) n=55748, refcount: 1>
refcount: 1>
new_DM -- step:     1
Initializing Density Matrix...
DM filled with atomic data:
<dSpData2D:DM initialized from atoms
  <sparsity:sparsity for geom step 0
    nrows_g=43 nrows=11 sparsity=30.1504 nnzs=55748, refcount: 8>
  <dData2D:DM n=55748 m=1, refcount: 1>
refcount: 1>
No. of atoms with KB's overlaping orbs in proc 0. Max # of overlaps:     297     862
New grid distribution:   1
           1       1:   20    1:   10    1:   12
           2       1:   20    1:   10   13:   24
           3       1:   20   11:   20    1:   12
           4       1:   20   11:   20   13:   24

InitMesh: MESH =    40 x    40 x    48 =       76800
InitMesh: (bp) =    20 x    20 x    24 =        9600
InitMesh: Mesh cutoff (required, used) =   300.000   316.498 Ry
ExtMesh (bp) on 0 =   156 x   146 x   160 =     3644160
New grid distribution:   2
           1       1:   20    1:   10    1:   12
           2       1:   20    1:   10   13:   24
           3       1:   20   11:   20    1:   12
           4       1:   20   11:   20   13:   24
New grid distribution:   3
           1       1:   20    1:   10    1:   12
           2       1:   20    1:   10   13:   24
           3       1:   20   11:   20    1:   12
           4       1:   20   11:   20   13:   24
Setting up quadratic distribution...
ExtMesh (bp) on 0 =   156 x   146 x   160 =     3644160
PhiOnMesh: Number of (b)points on node 0 =                 2400
PhiOnMesh: nlist on node 0 =              1110496

stepf: Fermi-Dirac step function

siesta: Program's energy decomposition (eV):
siesta: Ebs     =      -149.279888
siesta: Eions   =       321.344870
siesta: Ena     =        90.262940
siesta: Ekin    =       128.489190
siesta: Enl     =         7.847547
siesta: Eso     =         0.000000
siesta: Edftu   =         0.000000
siesta: DEna    =         5.887494
siesta: DUscf   =         1.762738
siesta: DUext   =         0.000000
siesta: Exc     =       -97.395450
siesta: eta*DQ  =         0.000000
siesta: Emadel  =         0.000000
siesta: Emeta   =         0.000000
siesta: Emolmec =        -3.139916
siesta: Ekinion =         0.000000
siesta: Eharris =      -183.101365
siesta: Etot    =      -187.630327
siesta: FreeEng =      -187.631013

SCF Convergence by FreeE+DM+H criterion
|FreeE_i-FreeE_(i-1)| (eV) <     0.00100000
max |DM_out - DM_in|         :     0.0001792111
max |H_out - H_in|      (eV) :     0.0001206611
SCF cycle converged after 14 iterations

Using DM_out to compute the final energy and forces
No. of atoms with KB's overlaping orbs in proc 0. Max # of overlaps:     297     862

MM-Stress (kbar):       -0.09       -0.09       53.32        0.00       -0.00       -0.00

siesta: E_KS(eV) =             -187.8838

siesta: E_KS - E_eggbox =      -187.8838

siesta: Atomic forces (eV/Ang):
     1    0.000000    0.000000    0.000000
     2    0.381572   -0.660906   -0.000000
     3   -0.381572    0.660906   -0.000000
     4    0.381475    0.660733   -0.000000
     5   -0.381475   -0.660734   -0.000000
     6   -0.763147   -0.000002   -0.000000
     7    0.763147    0.000002   -0.000000
   Tot    0.000000   -0.000000   -0.000000
   Max    0.763147
   Res    0.407884    sqrt( Sum f_i^2 / 3N )
   Max    0.763147    constrained

Stress tensor Voigt[x,y,z,yz,xz,xy] (kbar):     -896.66     -896.69      543.12       -0.00       -0.00       -0.03
(Free)E + p*V (eV/cell)     -170.5079
Target enthalpy (eV/cell)     -187.8971

siesta: Eigenvalues (eV):
  ik is       eps
   1  1  -20.5059  -14.3657  -13.7036  -11.2309  -11.2307  -10.8678   -9.7296   -6.5213   -5.3326   -5.3325
          -1.8218   -0.9758   -0.9756   -0.5051   -0.5050    1.4923    1.4924    7.7179   10.5498   10.5500
   12.9116   12.9117   18.2185   18.2185   21.9159   24.4694   28.9713   30.9039   30.9039   33.4392
   33.4401   35.5398   35.5399   36.3341   36.3342   45.3749   47.4849   49.0429   76.4111   76.4112
   90.1553  108.2651  108.2652
   2  1  -20.4080  -14.3812  -13.6040  -12.5708  -11.6076  -10.4071   -9.5373   -8.6013   -4.4412   -3.7188
          -3.7098   -2.5461   -0.4731    0.4035    1.6305    1.8539    2.6217    2.7048    3.0554    8.7009
   11.4491   15.4099   18.0431   18.7503   19.0175   20.6840   22.5077   25.1877   25.5858   26.8659
   27.4481   28.7268   33.2382   34.6191   42.2708   47.1197   49.1324   49.9439   57.8604   64.5728
   65.3738   77.3185   84.3402
   3  1  -20.4080  -14.3812  -13.6040  -12.5708  -11.6076  -10.4071   -9.5373   -8.6013   -4.4412   -3.7188
          -3.7098   -2.5461   -0.4731    0.4035    1.6305    1.8539    2.6217    2.7048    3.0554    8.7009
   11.4491   15.4099   18.0431   18.7503   19.0175   20.6840   22.5077   25.1877   25.5858   26.8659
   27.4481   28.7268   33.2382   34.6191   42.2708   47.1197   49.1324   49.9439   57.8604   64.5728
   65.3738   77.3185   84.3402
   4  1  -20.4080  -14.3812  -13.6039  -12.5708  -11.6077  -10.4071   -9.5372   -8.6013   -4.4412   -3.7188
          -3.7099   -2.5460   -0.4731    0.4035    1.6304    1.8541    2.6217    2.7047    3.0555    8.7007
   11.4491   15.4099   18.0431   18.7499   19.0175   20.6840   22.5078   25.1876   25.5857   26.8659
   27.4479   28.7270   33.2382   34.6192   42.2707   47.1197   49.1323   49.9438   57.8605   64.5726
   65.3737   77.3185   84.3400
   5  1  -20.3224  -15.8978  -12.7225  -11.1953  -11.1572  -11.1571   -9.5679   -5.0897   -4.1891   -4.1891
          -3.9734   -3.9734   -3.5303   -3.5303    2.7903    2.7906    6.2601   14.4083   17.2768   17.6308
   17.6308   18.4979   18.4979   22.5552   23.6897   23.6906   24.1235   24.1236   25.1959   25.6360
   25.6361   29.5781   29.5782   36.4690   44.0354   47.5769   48.3356   51.5659   51.5661   86.8055
   86.8055  101.0032  101.0032
   6  1  -20.0058  -15.7619  -13.1917  -12.4074  -11.6847  -11.5564   -7.6514   -5.5866   -5.3727   -5.1587
          -1.6111   -1.4903   -1.0440   -0.5874    0.8482    1.5435    4.2519    6.8231   12.1047   13.4397
   14.8101   15.5280   15.9830   17.7255   20.4990   20.6712   24.8608   25.2570   26.0556   30.0144
   31.6208   36.8467   38.6344   38.9017   46.0952   50.9087   53.9033   60.0019   68.6760   72.5242
   73.6499  143.2891  146.5898
   7  1  -20.0058  -15.7619  -13.1917  -12.4074  -11.6847  -11.5564   -7.6514   -5.5866   -5.3727   -5.1587
          -1.6111   -1.4903   -1.0440   -0.5874    0.8482    1.5435    4.2519    6.8231   12.1047   13.4397
   14.8101   15.5280   15.9830   17.7255   20.4990   20.6712   24.8608   25.2570   26.0557   30.0144
   31.6208   36.8467   38.6344   38.9017   46.0952   50.9088   53.9033   60.0019   68.6760   72.5242
   73.6499  143.2891  146.5898
   8  1  -20.0058  -15.7619  -13.1917  -12.4074  -11.6847  -11.5564   -7.6513   -5.5864   -5.3727   -5.1587
          -1.6111   -1.4905   -1.0440   -0.5875    0.8482    1.5435    4.2519    6.8230   12.1046   13.4396
   14.8101   15.5280   15.9831   17.7255   20.4994   20.6712   24.8608   25.2570   26.0556   30.0144
   31.6212   36.8467   38.6336   38.9017   46.0952   50.9088   53.9035   60.0018   68.6759   72.5242
   73.6499  143.2891  146.5898
siesta: Fermi energy =     -11.241998 eV

siesta: Program's energy decomposition (eV):
siesta: Ebs     =      -145.069575
siesta: Eions   =       321.344870
siesta: Ena     =        90.262940
siesta: Ekin    =       131.620032
siesta: Enl     =         6.754269
siesta: Eso     =         0.000000
siesta: Edftu   =         0.000000
siesta: DEna    =         4.860212
siesta: DUscf   =         1.097130
siesta: DUext   =         0.000000
siesta: Exc     =       -97.993579
siesta: eta*DQ  =         0.000000
siesta: Emadel  =         0.000000
siesta: Emeta   =         0.000000
siesta: Emolmec =        -3.139916
siesta: Ekinion =         0.000000
siesta: Eharris =      -187.883782
siesta: Etot    =      -187.883783
siesta: FreeEng =      -187.897087

siesta: Final energy (eV):
siesta:  Band Struct. =    -145.069575
siesta:       Kinetic =     131.620032
siesta:       Hartree =      42.681287
siesta:       Edftu   =       0.000000
siesta:       Eso     =       0.000000
siesta:    Ext. field =       0.000000
siesta:   Exch.-corr. =     -97.993579
siesta:  Ion-electron =    -254.404612
siesta:       Ion-ion =      -6.646995
siesta:       Ekinion =       0.000000
siesta:         Total =    -187.883783
siesta:         Fermi =     -11.241998

siesta: Atomic forces (eV/Ang):
siesta:      1    0.000000    0.000000    0.000000
siesta:      2    0.381572   -0.660906   -0.000000
siesta:      3   -0.381572    0.660906   -0.000000
siesta:      4    0.381475    0.660733   -0.000000
siesta:      5   -0.381475   -0.660734   -0.000000
siesta:      6   -0.763147   -0.000002   -0.000000
siesta:      7    0.763147    0.000002   -0.000000
siesta: ----------------------------------------
siesta:    Tot    0.000000   -0.000000   -0.000000

siesta: Stress tensor (static) (eV/Ang**3):
siesta:    -0.559647   -0.000016   -0.000000
siesta:    -0.000016   -0.559666    0.000000
siesta:    -0.000000   -0.000000    0.338984

siesta: Cell volume =         66.853320 Ang**3

siesta: Pressure (static):
siesta:                Solid            Molecule  Units
siesta:           0.00283292          0.00264588  Ry/Bohr**3
siesta:           0.26010941          0.24293548  eV/Ang**3
siesta:         416.74571796        389.22975058  kBar
(Free)E+ p_basis*V_orbitals  =        -168.463360
(Free)Eharris+ p_basis*V_orbitals  =        -168.463359

cite: Please see "LiC6_scf.bib" for an exhaustive BiBTeX file.
cite: Please clearly indicate Siesta version in published work: 4.1.5
cite: This calculation has made use of the following articles
cite: which are encouraged to be cited in a published work.
        Primary SIESTA paper
          DOI: www.doi.org/10.1088/0953-8984/14/11/302

>> End of run:   9-NOV-2022   3:52:18
Job completed