>> Start of run:   9-NOV-2022  14:48:41

reinit: Reading from standard input
reinit: Dumped input in INPUT_TMP.88925
************************** Dump of input data file ****************************
SystemName LiC6_scf
SystemLabel LiC6_scf
NumberOfAtoms   7
NumberOfSpecies 2
%block ChemicalSpeciesLabel
1  3   Li-gga
2  6   C-gga
%endblock ChemicalSpeciesLabel
PAO.BasisSize  SZP
PAO.EnergyShift  10 meV
%block PS.Lmax
C-gga   2
Li-gga  2
%endblock PS.Lmax
LatticeConstant 1.000000 Ang
%block LatticeVectors
	4.3161300000	0.0000000000	0.0000000000
	-2.1580650000	3.7378782260	0.0000000000
	0.0000000000	0.0000000000	2.7378964000
%endblock LatticeVectors
AtomicCoordinatesFormat Ang
%block AtomicCoordinatesAndAtomicSpecies
	0.00000000	0.00000000	0.00000000	2
	-0.70288177	1.21742694	1.36894820	1
	-1.45518323	2.52045129	1.36894820	1
	1.45518323	2.52045129	1.36894820	1
	0.70288177	1.21742694	1.36894820	1
	1.40576354	0.00000000	1.36894820	1
	2.91036646	0.00000000	1.36894820	1
%endblock AtomicCoordinatesAndAtomicSpecies
Kgrid_NoTRS  T
%block kgrid_MonkhorstPack
4       0       0       0.0
0       4       0       0.0
0       0       4       0.0
%endblock kgrid_MonkhorstPack
AtomCoorFormatOut Ang
BlockSize 1
#ProcessorY 12
Diag.ParallelOverK   T
Diag.DivideAndConquer F
MeshCutoff   300 Ry
SCF.FreeE.Tolerance 1E-3 eV
SCF.EDM.Tolerance   5E-3 eV
DM.Tolerance  1E-3
DM.Require.Energy.Convergence T
DM.NumberPulay 4
XC.Functional GGA
XC.Authors    PBE
UseSaveData        F
MD.TypeOfRun       CG
MD.VariableCell    F
MD.NumCGsteps      00
MD.MaxCGDispl      0.200000 Bohr
MD.MaxStressTol    1.000000 GPa
MD.MaxForceTol     0.010000 eV/Ang
WriteMDHistory T
WriteCoorStep T
WriteForces T
WriteCoorStep    T
WriteEigenValues T
WriteDM    F
MM.UnitsDistance Ang  # what this program prints out DO NOT CHANGE
MM.UnitsEnergy    eV  # what this program prints out DO NOT CHANGE
MM.Grimme.S6     0.75 # Grimme-paper for PBE (correct for your functional)
MM.Grimme.D     20.   # Grimme-paper (correct for your functional)
%block MM.Potentials
  1   1 Grimme     16.69      1.650 # Li, 10.1002/jcc.20495
  1   2 Grimme     17.40      2.277 # Li / C
  2   2 Grimme     18.14      2.904 # C, 10.1002/jcc.20495
%endblock MM.Potentials
#%block ProjectedDensityOfStates
# -200.0  120.0  0.4  12800  eV
#%endblock ProjectedDensityOfStates
************************** End of input data file *****************************

reinit: -----------------------------------------------------------------------
reinit: System Name: LiC6_scf
reinit: -----------------------------------------------------------------------
reinit: System Label: LiC6_scf
reinit: -----------------------------------------------------------------------
Reading two-body potentials
Grimme - two-body potential between 1 and 1
Grimme - two-body potential between 1 and 2
Grimme - two-body potential between 2 and 2

initatom: Reading input for the pseudopotentials and atomic orbitals ----------
Species number:   1 Atomic number:    3 Label: Li-gga
Species number:   2 Atomic number:    6 Label: C-gga

Ground state valence configuration:   2s01
Reading pseudopotential information in formatted form from Li-gga.psf

Valence configuration for pseudopotential generation:
2s( 1.00) rc: 2.28
2p( 0.00) rc: 2.28
3d( 0.00) rc: 2.59
4f( 0.00) rc: 2.59
Ground state valence configuration:   2s02  2p02
Reading pseudopotential information in formatted form from C-gga.psf

Valence configuration for pseudopotential generation:
2s( 2.00) rc: 1.56
2p( 2.00) rc: 1.56
3d( 0.00) rc: 1.56
4f( 0.00) rc: 1.56
relmxkb: Read Max KB Ang. Momentum=    2 for species C-gga
relmxkb: Read Max KB Ang. Momentum=    2 for species Li-gga

<basis_specs>
Li-gga               Z=   3    Mass=  6.9400        Charge= 0.17977+309
Lmxo=0 Lmxkb= 2    BasisType=split      Semic=F
L=0  Nsemic=0  Cnfigmx=2
          i=1  nzeta=1  polorb=1  (2s)
            splnorm:   0.15000
               vcte:    0.0000
               rinn:    0.0000
               qcoe:    0.0000
               qyuk:    0.0000
               qwid:   0.10000E-01
                rcs:    0.0000
            lambdas:    1.0000
L=0  Nkbl=1  erefs: 0.17977+309
L=1  Nkbl=1  erefs: 0.17977+309
L=2  Nkbl=1  erefs: 0.17977+309
</basis_specs>

atom: Called for Li-gga                (Z =   3)

read_vps: Pseudopotential generation method:
read_vps: ATM 3.2.2 Troullier-Martins
Valence charge for ps generation:    1.00000

read_vps: Pseudopotential includes a core correction:
read_vps: Pseudo-core for xc-correction

xc_check: Exchange-correlation functional:
xc_check: GGA Perdew, Burke & Ernzerhof 1996
V l=0 = -2*Zval/r beyond r=  2.2278
V l=1 = -2*Zval/r beyond r=  2.2278
V l=2 = -2*Zval/r beyond r=  2.5245
All V_l potentials equal beyond r=  2.4622
This should be close to max(r_c) in ps generation
All pots = -2*Zval/r beyond r=  2.5245

VLOCAL1: 99.0% of the norm of Vloc inside      7.160 Ry
VLOCAL1: 99.9% of the norm of Vloc inside     16.318 Ry
atom: Maximum radius for 4*pi*r*r*local-pseudopot. charge    2.86079
atom: Maximum radius for r*vlocal+2*Zval:    2.43160
GHOST: No ghost state for L =  0
GHOST: No ghost state for L =  1
GHOST: No ghost state for L =  2

KBgen: Kleinman-Bylander projectors:
   l= 0   rc=  2.654023   el= -0.211234   Ekb=  1.742119   kbcos=  0.228463
   l= 1   rc=  2.721230   el= -0.080095   Ekb= -1.122375   kbcos= -0.147941
   l= 2   rc=  2.825246   el=  0.002001   Ekb= -0.207076   kbcos= -0.031965

KBgen: Total number of Kleinman-Bylander projectors:    9
atom: -------------------------------------------------------------------------

atom: SANKEY-TYPE ORBITALS:

SPLIT: Orbitals with angular momentum L= 0

SPLIT: Basis orbitals for state 2s

SPLIT: PAO cut-off radius determined from an
SPLIT: energy shift=  0.000735 Ry

   izeta = 1
                 lambda =    1.000000
                     rc =   11.897381
                 energy =   -0.210580
                kinetic =    0.143382
    potential(screened) =   -0.353962
       potential(ionic) =   -0.533453

POLgen: Perturbative polarization orbital with L=  1

POLgen: Polarization orbital for state 2s

   izeta = 1
                     rc =   11.897381
                 energy =   -0.027011
                kinetic =    0.282985
    potential(screened) =   -0.309997
       potential(ionic) =   -0.490997
atom: Total number of Sankey-type orbitals:  4

atm_pop: Valence configuration (for local Pseudopot. screening):
 2s( 1.00)
Vna: chval, zval:    1.00000   1.00000

Vna:  Cut-off radius for the neutral-atom potential:  11.897381
comcore: Pseudo-core radius Rcore=  3.450946

atom: _________________________________________________________________________

<basis_specs>
C-gga                Z=   6    Mass=  12.010        Charge= 0.17977+309
Lmxo=1 Lmxkb= 2    BasisType=split      Semic=F
L=0  Nsemic=0  Cnfigmx=2
          i=1  nzeta=1  polorb=0  (2s)
            splnorm:   0.15000
               vcte:    0.0000
               rinn:    0.0000
               qcoe:    0.0000
               qyuk:    0.0000
               qwid:   0.10000E-01
                rcs:    0.0000
            lambdas:    1.0000
L=1  Nsemic=0  Cnfigmx=2
          i=1  nzeta=1  polorb=1  (2p)
            splnorm:   0.15000
               vcte:    0.0000
               rinn:    0.0000
               qcoe:    0.0000
               qyuk:    0.0000
               qwid:   0.10000E-01
                rcs:    0.0000
            lambdas:    1.0000
L=0  Nkbl=1  erefs: 0.17977+309
L=1  Nkbl=1  erefs: 0.17977+309
L=2  Nkbl=1  erefs: 0.17977+309
</basis_specs>

atom: Called for C-gga                 (Z =   6)

read_vps: Pseudopotential generation method:
read_vps: ATM 3.2.2 Troullier-Martins
Valence charge for ps generation:    4.00000

xc_check: Exchange-correlation functional:
xc_check: GGA Perdew, Burke & Ernzerhof 1996
V l=0 = -2*Zval/r beyond r=  1.5227
V l=1 = -2*Zval/r beyond r=  1.5227
V l=2 = -2*Zval/r beyond r=  1.5227
All V_l potentials equal beyond r=  1.4851
This should be close to max(r_c) in ps generation
All pots = -2*Zval/r beyond r=  1.5227

VLOCAL1: 99.0% of the norm of Vloc inside     19.682 Ry
VLOCAL1: 99.9% of the norm of Vloc inside     44.856 Ry
atom: Maximum radius for 4*pi*r*r*local-pseudopot. charge    1.79142
atom: Maximum radius for r*vlocal+2*Zval:    1.54183
GHOST: No ghost state for L =  0
GHOST: No ghost state for L =  1
GHOST: No ghost state for L =  2

KBgen: Kleinman-Bylander projectors:
   l= 0   rc=  1.661951   el= -1.010689   Ekb=  5.289847   kbcos=  0.316429
   l= 1   rc=  1.661951   el= -0.388490   Ekb= -4.102504   kbcos= -0.351025
   l= 2   rc=  1.747182   el=  0.001971   Ekb= -1.006005   kbcos= -0.008530

KBgen: Total number of Kleinman-Bylander projectors:    9
atom: -------------------------------------------------------------------------

atom: SANKEY-TYPE ORBITALS:

[...]

SPLIT: Basis orbitals for state 2s

[...]

SPLIT: Orbitals with angular momentum L= 1

SPLIT: Basis orbitals for state 2p

SPLIT: PAO cut-off radius determined from an
SPLIT: energy shift=  0.000735 Ry

   izeta = 1
                 lambda =    1.000000
                     rc =    7.638387
                 energy =   -0.387843
                kinetic =    2.314739
    potential(screened) =   -2.702582
       potential(ionic) =   -6.092371

POLgen: Perturbative polarization orbital with L=  2

POLgen: Polarization orbital for state 2p

   izeta = 1
                     rc =    7.638387
                 energy =    0.921402
                kinetic =    1.955040
    potential(screened) =   -1.033637
       potential(ionic) =   -3.679558
atom: Total number of Sankey-type orbitals:  9

atm_pop: Valence configuration (for local Pseudopot. screening):
 2s( 2.00)
 2p( 2.00)
Vna: chval, zval:    4.00000   4.00000

Vna:  Cut-off radius for the neutral-atom potential:   7.638387

atom: _________________________________________________________________________

prinput: Basis input ----------------------------------------------------------

PAO.BasisType split

%block ChemicalSpeciesLabel
    1    3 Li-gga                  # Species index, atomic number, species label
    2    6 C-gga                   # Species index, atomic number, species label
%endblock ChemicalSpeciesLabel

%block PAO.Basis                 # Define Basis set
Li-gga                1                    # Species label, number of l-shells
 n=2   0   1 P   1                   # n, l, Nzeta, Polarization, NzetaPol
  11.897
   1.000
C-gga                 2                    # Species label, number of l-shells
 n=2   0   1                         # n, l, Nzeta
   5.949
   1.000
 n=2   1   1 P   1                   # n, l, Nzeta, Polarization, NzetaPol
   7.638
   1.000
%endblock PAO.Basis

prinput: ----------------------------------------------------------------------

coor:   Atomic-coordinates input format  =     Cartesian coordinates
coor:                                          (in Angstroms)

siesta: Atomic coordinates (Bohr) and species
siesta:      0.00000   0.00000   0.00000  2        1
siesta:     -1.32825   2.30060   2.58694  1        2
siesta:     -2.74990   4.76296   2.58694  1        3
siesta:      2.74990   4.76296   2.58694  1        4
[...]
redata: Neglect nonoverlap interactions             =   F
redata: Method of Calculation                       = Diagonalization
redata: Electronic Temperature                      =   299.9869 K
redata: Fix the spin of the system                  =   F
redata: Dynamics option                             = Single-point calculation
mix.SCF: Pulay mixing                            = Pulay
mix.SCF:    Variant                              = stable
mix.SCF:    History steps                        = 4
mix.SCF:    Linear mixing weight                 =     0.250000
mix.SCF:    Mixing weight                        =     0.250000
mix.SCF:    SVD condition                        = 0.1000E-07
redata: ***********************************************************************

%block SCF.Mixers
  Pulay
%endblock SCF.Mixers

%block SCF.Mixer.Pulay
  # Mixing method
  method pulay
  variant stable

  # Mixing options
  weight 0.2500
  weight.linear 0.2500
  history 4
%endblock SCF.Mixer.Pulay

DM_history_depth set to one: no extrapolation allowed by default for geometry relaxation
Size of DM history Fstack: 1
Total number of electrons:    10.000000
Total ionic charge:    10.000000

* ProcessorY, Blocksize:    2   1

* Orbital distribution balance (max,min):     9     8

k-point displ. along   1 input, could be:     0.00    0.50
k-point displ. along   2 input, could be:     0.00    0.50
k-point displ. along   3 input, could be:     0.00    0.50
 Kpoints in:           48 . Kpoints trimmed:           44

siesta: k-grid: Number of k-points =    44
siesta: k-grid: Cutoff (effective) =     5.476 Ang
siesta: k-grid: Supercell and displacements
siesta: k-grid:    4   0   0      0.000
siesta: k-grid:    0   4   0      0.000
siesta: k-grid:    0   0   4      0.000

diag: Algorithm                                     = Expert
diag: Parallel over k                               =   T
diag: Use parallel 2D distribution                  =   T
diag: Parallel block-size                           = 1
diag: Parallel distribution                         =     2 x     2
diag: Used triangular part                          = Lower
diag: Absolute tolerance                            =  0.100E-15
diag: Orthogonalization factor                      =  0.100E-05

superc: Internal auxiliary supercell:     9 x     9 x    11  =     891
superc: Number of atoms, orbitals, and projectors:   6237  29403  56133

ts: **************************************************************
ts: Save H and S matrices                           =    F
ts: Save DM and EDM matrices                        =    F
ts: Only save the overlap matrix S                  =    F
ts: **************************************************************

************************ Begin: TS CHECKS AND WARNINGS ************************
************************ End: TS CHECKS AND WARNINGS **************************

                        Single-point calculation

outcoor: Atomic coordinates (Ang):
    0.00000000    0.00000000    0.00000000   2       1  C-gga
   -0.70288177    1.21742694    1.36894820   1       2  Li-gga
   -1.45518323    2.52045129    1.36894820   1       3  Li-gga
    1.45518323    2.52045129    1.36894820   1       4  Li-gga
    0.70288177    1.21742694    1.36894820   1       5  Li-gga
    1.40576354    0.00000000    1.36894820   1       6  Li-gga
    2.91036646    0.00000000    1.36894820   1       7  Li-gga

superc: Internal auxiliary supercell:     9 x     9 x    11  =     891
superc: Number of atoms, orbitals, and projectors:   6237  29403  56133

outcell: Unit cell vectors (Ang):
        4.316130    0.000000    0.000000
       -2.158065    3.737878    0.000000
        0.000000    0.000000    2.737896

outcell: Cell vector modules (Ang)   :    4.316130    4.316130    2.737896
outcell: Cell angles (23,13,12) (deg):     90.0000     90.0000    120.0000
outcell: Cell volume (Ang**3)        :     44.1709
<dSpData1D:S at geom step 0
  <sparsity:sparsity for geom step 0
    nrows_g=33 nrows=9 sparsity=62.8953 nnzs=68493, refcount: 7>
  <dData1D:(new from dSpData1D) n=68493, refcount: 1>
refcount: 1>
new_DM -- step:     1
Initializing Density Matrix...
DM filled with atomic data:
<dSpData2D:DM initialized from atoms
  <sparsity:sparsity for geom step 0
    nrows_g=33 nrows=9 sparsity=62.8953 nnzs=68493, refcount: 8>
  <dData2D:DM n=68493 m=1, refcount: 1>
refcount: 1>
No. of atoms with KB's overlaping orbs in proc 0. Max # of overlaps:     480    1214
New grid distribution:   1
           1       1:   20    1:   10    1:    8
           2       1:   20    1:   10    9:   15
           3       1:   20   11:   20    1:    8
           4       1:   20   11:   20    9:   15

InitMesh: MESH =    40 x    40 x    30 =       48000
InitMesh: (bp) =    20 x    20 x    15 =        6000
InitMesh: Mesh cutoff (required, used) =   300.000   316.498 Ry
ExtMesh (bp) on 0 =   156 x   146 x   148 =     3370848
New grid distribution:   2
           1       1:   10    1:   10    1:   15
           2      11:   20    1:   10    1:   15
           3       1:   10   11:   20    1:   15
           4      11:   20   11:   20    1:   15
New grid distribution:   3
           1       1:   10    1:   10    1:   15
           2      11:   20    1:   10    1:   15
           3       1:   10   11:   20    1:   15
           4      11:   20   11:   20    1:   15
Setting up quadratic distribution...
ExtMesh (bp) on 0 =   146 x   146 x   155 =     3303980
PhiOnMesh: Number of (b)points on node 0 =                 1500
PhiOnMesh: nlist on node 0 =               961380

stepf: Fermi-Dirac step function

siesta: Program's energy decomposition (eV):
siesta: Ebs     =      -130.481630
siesta: Eions   =       321.344870
siesta: Ena     =        75.865597
siesta: Ekin    =       210.020894
siesta: Enl     =       -13.504248
siesta: Eso     =         0.000000
siesta: Edftu   =         0.000000
siesta: DEna    =       -30.105110
siesta: DUscf   =        19.265731
siesta: DUext   =         0.000000
siesta: Exc     =      -119.457663
siesta: eta*DQ  =         0.000000
siesta: Emadel  =         0.000000
siesta: Emeta   =         0.000000
siesta: Emolmec =        -3.588564
siesta: Ekinion =         0.000000
siesta: Eharris =      -148.650267
siesta: Etot    =      -182.848233
siesta: FreeEng =      -182.852715

SCF Convergence by FreeE+DM+H criterion
|FreeE_i-FreeE_(i-1)| (eV) <     0.00100000
max |DM_out - DM_in|         :     0.0002343115
max |H_out - H_in|      (eV) :     0.0003463851
SCF cycle converged after 9 iterations

Using DM_out to compute the final energy and forces
No. of atoms with KB's overlaping orbs in proc 0. Max # of overlaps:     480    1214

MM-Stress (kbar):       10.53       10.53      110.88        0.00       -0.00        0.00

siesta: E_KS(eV) =             -193.6742

siesta: E_KS - E_eggbox =      -193.6742

siesta: Atomic forces (eV/Ang):
     1   -0.000000    0.000000    0.000000
     2   -0.451382    0.781812   -0.000000
     3    0.451382   -0.781812   -0.000000
     4   -0.451357   -0.781774   -0.000000
     5    0.451358    0.781774   -0.000000
     6    0.902760   -0.000002   -0.000000
     7   -0.902760    0.000002   -0.000000
   Tot   -0.000000    0.000000   -0.000000
   Max    0.902760
   Res    0.482537    sqrt( Sum f_i^2 / 3N )
   Max    0.902760    constrained

Stress tensor Voigt[x,y,z,yz,xz,xy] (kbar):    -1436.98    -1437.01      389.92       -0.00       -0.00       -0.03
(Free)E + p*V (eV/cell)     -170.8499
Target enthalpy (eV/cell)     -193.6778

siesta: Eigenvalues (eV):
  ik is       eps
   1  1  -26.3396  -19.8109  -18.8637  -15.7915  -15.1202  -14.8127   -9.9830   -6.1093   -5.8062   -4.4269
          -1.8204   -1.7942   -1.6163    4.2523    5.6419    9.4479   10.7740   13.0511   13.2763   13.8990
   15.1958   15.9258   20.3552   20.4900   23.5177   25.3054   25.6637   29.8419   39.1651   42.3650
   43.4421   45.4255   50.9817
   2  1  -26.3975  -19.7460  -17.4772  -17.1588  -15.8411  -15.0133  -10.3431   -9.2335   -4.1080   -2.4894
          -1.8180   -1.6612    1.7236    2.4292    6.4123    8.7889    9.3528   12.2438   13.9939   15.0908
   17.6361   18.1724   20.5775   20.7225   23.7255   25.1523   28.5123   29.0543   32.6358   45.1705
   46.0331   49.3896   53.0005
   3  1  -26.3975  -19.7460  -17.4772  -17.1589  -15.8410  -15.0133  -10.3432   -9.2335   -4.1080   -2.4892
          -1.8182   -1.6611    1.7236    2.4292    6.4120    8.7891    9.3531   12.2439   13.9939   15.0910
   17.6360   18.1725   20.5777   20.7225   23.7251   25.1529   28.5116   29.0543   32.6359   45.1703
   46.0331   49.3896   53.0000
   4  1  -26.3396  -19.8109  -18.8638  -15.7916  -15.1201  -14.8127   -9.9830   -6.1093   -5.8062   -4.4269
          -1.8204   -1.7942   -1.6163    4.2524    5.6421    9.4476   10.7742   13.0514   13.2766   13.8990
   15.1953   15.9260   20.3553   20.4900   23.5174   25.3052   25.6638   29.8420   39.1650   42.3650
   43.4421   45.4256   50.9816
   5  1  -26.3975  -19.7460  -17.4772  -17.1588  -15.8411  -15.0133  -10.3431   -9.2335   -4.1080   -2.4894
          -1.8180   -1.6612    1.7236    2.4292    6.4123    8.7889    9.3528   12.2438   13.9939   15.0908
   17.6361   18.1724   20.5775   20.7225   23.7255   25.1523   28.5123   29.0543   32.6358   45.1705
   46.0331   49.3896   53.0005
   6  1  -26.0727  -19.2210  -17.0166  -17.0164  -16.6975  -15.1425  -11.2302  -11.2302   -3.1318   -1.8347
           0.1561    0.1566    2.7415    2.7415    6.9170    6.9171    8.8265    8.8266   11.1755   18.6031
   18.6031   19.2035   19.2036   20.5686   33.1022   34.3591   34.3605   41.4298   41.7362   41.7371
   43.8899   43.8901   44.3436
   7  1  -26.3661  -20.0410  -17.9380  -17.2880  -14.8319  -14.3480   -8.6679   -8.2518   -5.4104   -4.9174
          -3.6351   -1.6007    0.9072    1.3498    4.6512    7.9347    8.6117   12.6705   14.2094   17.1970
   18.0811   20.2036   20.2190   20.6888   22.6575   24.1521   26.1452   26.3972   40.3145   45.1663
   47.5097   50.8662   59.3308
   8  1  -26.3396  -19.8109  -18.8638  -15.7916  -15.1201  -14.8127   -9.9830   -6.1093   -5.8062   -4.4269
          -1.8204   -1.7942   -1.6163    4.2524    5.6421    9.4476   10.7742   13.0514   13.2766   13.8990
   15.1953   15.9260   20.3553   20.4900   23.5174   25.3052   25.6638   29.8420   39.1650   42.3650
   43.4421   45.4256   50.9816
   9  1  -26.3396  -19.8109  -18.8638  -15.7916  -15.1201  -14.8127   -9.9830   -6.1093   -5.8062   -4.4269
          -1.8204   -1.7942   -1.6163    4.2524    5.6421    9.4476   10.7742   13.0514   13.2766   13.8990
   15.1953   15.9259   20.3553   20.4900   23.5174   25.3052   25.6638   29.8420   39.1650   42.3650
   43.4421   45.4256   50.9816
  10  1  -26.3661  -20.0410  -17.9380  -17.2880  -14.8319  -14.3480   -8.6679   -8.2518   -5.4104   -4.9174
          -3.6351   -1.6007    0.9072    1.3498    4.6512    7.9347    8.6117   12.6705   14.2094   17.1970
   18.0811   20.2037   20.2190   20.6888   22.6575   24.1521   26.1452   26.3972   40.3145   45.1664
   47.5097   50.8662   59.3308
  11  1  -26.3396  -19.8109  -18.8638  -15.7916  -15.1201  -14.8127   -9.9830   -6.1093   -5.8062   -4.4269
          -1.8204   -1.7942   -1.6163    4.2524    5.6421    9.4476   10.7742   13.0514   13.2766   13.8990
   15.1953   15.9259   20.3553   20.4900   23.5174   25.3052   25.6638   29.8420   39.1650   42.3650
   43.4421   45.4256   50.9816
  12  1  -26.3661  -20.0410  -17.9380  -17.2882  -14.8319  -14.3479   -8.6680   -8.2518   -5.4104   -4.9174
          -3.6351   -1.6007    0.9072    1.3498    4.6507    7.9347    8.6119   12.6710   14.2099   17.1969
   18.0811   20.2033   20.2191   20.6888   22.6577   24.1515   26.1451   26.3970   40.3145   45.1661
   47.5096   50.8661   59.3307
  13  1  -25.7861  -19.6504  -18.5480  -18.1133  -15.4524  -14.7851   -9.3500   -8.4238   -8.2689   -4.6499
          -4.5796   -1.6671   -0.4643    1.6258    1.8977    3.0214    7.5557    8.8395   12.2332   17.2480
   17.9327   21.5251   22.3943   23.0009   24.4036   26.2025   29.3446   34.1926   41.2057   43.7398
   44.9755   46.7778   50.3031
  14  1  -25.9200  -19.7102  -17.8436  -17.1670  -16.2702  -15.1378   -9.4504   -9.3853   -8.8849   -3.9829
          -2.8774   -1.4903   -0.3787    1.0381    2.1131    3.8703    8.8939   11.4314   18.9708   19.2218
   20.6257   22.3979   22.8384   23.6219   24.3062   26.3419   27.6286   39.3787   41.5492   43.5532
   48.2916   48.8778   56.5493
  15  1  -25.9200  -19.7102  -17.8436  -17.1671  -16.2702  -15.1378   -9.4504   -9.3852   -8.8849   -3.9829
          -2.8775   -1.4901   -0.3788    1.0381    2.1131    3.8702    8.8941   11.4311   18.9713   19.2215
   20.6258   22.3979   22.8384   23.6217   24.3063   26.3420   27.6286   39.3791   41.5488   43.5531
   48.2916   48.8776   56.5490
[...]
          -4.5582   -1.6606   -0.7548   -0.3711    0.4027    0.9850    3.3850    5.1919    9.2914   18.1733
   18.5113   21.1978   21.8914   27.3197   29.2891   31.2830   33.5999   34.1969   34.5207   44.1401
   46.2248   68.7989   69.1023
  42  1  -24.9014  -20.6868  -19.6729  -17.5554  -14.4535  -14.2372  -13.3303   -8.8996   -5.3852   -5.3243
          -2.3386   -1.6561   -0.9288   -0.8549   -0.4856    0.7430    0.8415    5.5218   12.5723   17.2221
   19.8952   21.3975   24.0694   27.4009   27.4124   30.3186   33.7372   37.5642   53.1882   57.0556
   59.7076   68.3152   69.2984
  43  1  -24.9055  -20.6782  -19.2746  -18.3438  -14.4157  -14.2113  -11.1534  -10.9468   -6.7618   -4.6784
          -4.5582   -1.6606   -0.7548   -0.3711    0.4027    0.9850    3.3850    5.1919    9.2914   18.1733
   18.5113   21.1978   21.8914   27.3197   29.2891   31.2830   33.5999   34.1969   34.5207   44.1401
   46.2248   68.7989   69.1023
  44  1  -24.9014  -20.6868  -19.6729  -17.5555  -14.4535  -14.2372  -13.3303   -8.8992   -5.3852   -5.3245
          -2.3386   -1.6561   -0.9288   -0.8549   -0.4856    0.7430    0.8415    5.5218   12.5719   17.2221
   19.8960   21.3974   24.0693   27.4010   27.4122   30.3186   33.7371   37.5630   53.1884   57.0554
   59.7078   68.3150   69.2987
siesta: Fermi energy =     -14.993880 eV

siesta: Program's energy decomposition (eV):
siesta: Ebs     =      -194.227230
siesta: Eions   =       321.344870
siesta: Ena     =        75.865597
siesta: Ekin    =       161.521819
siesta: Enl     =         0.699384
siesta: Eso     =         0.000000
siesta: Edftu   =         0.000000
siesta: DEna    =        -0.136316
siesta: DUscf   =         2.587047
siesta: DUext   =         0.000000
siesta: Exc     =      -109.278273
siesta: eta*DQ  =         0.000000
siesta: Emadel  =         0.000000
siesta: Emeta   =         0.000000
siesta: Emolmec =        -3.588564
siesta: Ekinion =         0.000000
siesta: Eharris =      -193.674160
siesta: Etot    =      -193.674175
siesta: FreeEng =      -193.677784

siesta: Final energy (eV):
siesta:  Band Struct. =    -194.227230
siesta:       Kinetic =     161.521819
siesta:       Hartree =      61.786440
siesta:       Edftu   =       0.000000
siesta:       Eso     =       0.000000
siesta:    Ext. field =       0.000000
siesta:   Exch.-corr. =    -109.278273
siesta:  Ion-electron =    -356.991239
siesta:       Ion-ion =      52.875642
siesta:       Ekinion =       0.000000
siesta:         Total =    -193.674175
siesta:         Fermi =     -14.993880

siesta: Atomic forces (eV/Ang):
siesta:      1   -0.000000    0.000000    0.000000
siesta:      2   -0.451382    0.781812   -0.000000
siesta:      3    0.451382   -0.781812   -0.000000
siesta:      4   -0.451357   -0.781774   -0.000000
siesta:      5    0.451358    0.781774   -0.000000
siesta:      6    0.902760   -0.000002   -0.000000
siesta:      7   -0.902760    0.000002   -0.000000
siesta: ----------------------------------------
siesta:    Tot   -0.000000    0.000000   -0.000000

siesta: Stress tensor (static) (eV/Ang**3):
siesta:    -0.896883   -0.000017   -0.000000
siesta:    -0.000017   -0.896903   -0.000000
siesta:    -0.000000   -0.000000    0.243365

siesta: Cell volume =         44.170944 Ang**3

siesta: Pressure (static):
siesta:                Solid            Molecule  Units
siesta:           0.00562869          0.00596360  Ry/Bohr**3
siesta:           0.51680724          0.54755761  eV/Ang**3
siesta:         828.02544213        877.29348763  kBar
(Free)E+ p_basis*V_orbitals  =        -177.165858
(Free)Eharris+ p_basis*V_orbitals  =        -177.165843

cite: Please see "LiC6_scf.bib" for an exhaustive BiBTeX file.
cite: Please clearly indicate Siesta version in published work: 4.1.5
cite: This calculation has made use of the following articles
cite: which are encouraged to be cited in a published work.
        Primary SIESTA paper
          DOI: www.doi.org/10.1088/0953-8984/14/11/302

>> End of run:   9-NOV-2022  14:51:13
Job completed