>> Start of run:   9-NOV-2022  14:46:38

reinit: Reading from standard input
reinit: Dumped input in INPUT_TMP.72995
************************** Dump of input data file ****************************
SystemName LiC18_scf
SystemLabel LiC18_scf
NumberOfAtoms   19
NumberOfSpecies 2
%block ChemicalSpeciesLabel
1  3   Li-gga
2  6   C-gga
%endblock ChemicalSpeciesLabel
PAO.BasisSize  SZ
PAO.EnergyShift  10 meV
%block PS.Lmax
C-gga   2
Li-gga  2
%endblock PS.Lmax
LatticeConstant 1.000000 Ang
%block LatticeVectors
	4.3161300000	0.0000000000	0.0000000000
	-2.1580650000	3.7378782260	0.0000000000
	0.0000000000	0.0000000000	15.3174217800
%endblock LatticeVectors
AtomicCoordinatesFormat Ang
%block AtomicCoordinatesAndAtomicSpecies
	0.00000000	0.00000000	0.00000000	2
	-0.70288177	1.21742694	2.55290874	1
	-1.45518323	2.52045129	12.76451304	1
	1.45518323	2.52045129	2.55290874	1
	0.70288177	1.21742694	12.76451304	1
	1.40576354	0.00000000	2.55290874	1
	2.91036646	0.00000000	12.76451304	1
	-1.45518323	2.52045129	2.55290874	1
	-0.70288177	1.21742694	12.76451304	1
	0.70288177	1.21742694	2.55290874	1
	1.45518323	2.52045129	12.76451304	1
	2.91036646	0.00000000	2.55290874	1
	1.40576354	0.00000000	12.76451304	1
	-0.70288177	1.21742694	7.65871089	1
	-1.45518323	2.52045129	7.65871089	1
	1.45518323	2.52045129	7.65871089	1
	0.70288177	1.21742694	7.65871089	1
	1.40576354	0.00000000	7.65871089	1
	2.91036646	0.00000000	7.65871089	1
%endblock AtomicCoordinatesAndAtomicSpecies
Kgrid_NoTRS  T
%block kgrid_MonkhorstPack
2       0       0       0.0
0       2       0       0.0
0       0       2       0.0
%endblock kgrid_MonkhorstPack
AtomCoorFormatOut Ang
BlockSize 1
#ProcessorY 12
Diag.ParallelOverK   T
Diag.DivideAndConquer F
MeshCutoff   300 Ry
SCF.FreeE.Tolerance 1E-3 eV
SCF.EDM.Tolerance   5E-3 eV
DM.Tolerance  1E-3
DM.Require.Energy.Convergence T
DM.NumberPulay 4
XC.Functional GGA
XC.Authors    PBE
UseSaveData        F
MD.TypeOfRun       CG
MD.VariableCell    F
MD.NumCGsteps      00
MD.MaxCGDispl      0.200000 Bohr
MD.MaxStressTol    1.000000 GPa
MD.MaxForceTol     0.010000 eV/Ang
WriteMDHistory T
WriteCoorStep T
WriteForces T
WriteCoorStep    T
WriteEigenValues T
WriteDM    F
MM.UnitsDistance Ang  # what this program prints out DO NOT CHANGE
MM.UnitsEnergy    eV  # what this program prints out DO NOT CHANGE
MM.Grimme.S6     0.75 # Grimme-paper for PBE (correct for your functional)
MM.Grimme.D     20.   # Grimme-paper (correct for your functional)
%block MM.Potentials
  1   1 Grimme     16.69      1.650 # Li, 10.1002/jcc.20495
  1   2 Grimme     17.40      2.277 # Li / C
  2   2 Grimme     18.14      2.904 # C, 10.1002/jcc.20495
%endblock MM.Potentials
#%block ProjectedDensityOfStates
# -200.0  120.0  0.4  12800  eV
#%endblock ProjectedDensityOfStates
************************** End of input data file *****************************

reinit: -----------------------------------------------------------------------
reinit: System Name: LiC18_scf
reinit: -----------------------------------------------------------------------
reinit: System Label: LiC18_scf
reinit: -----------------------------------------------------------------------
Reading two-body potentials
Grimme - two-body potential between 1 and 1
Grimme - two-body potential between 1 and 2
Grimme - two-body potential between 2 and 2

initatom: Reading input for the pseudopotentials and atomic orbitals ----------
Species number:   1 Atomic number:    3 Label: Li-gga
Species number:   2 Atomic number:    6 Label: C-gga

Ground state valence configuration:   2s01
Reading pseudopotential information in formatted form from Li-gga.psf

Valence configuration for pseudopotential generation:
2s( 1.00) rc: 2.28
2p( 0.00) rc: 2.28
3d( 0.00) rc: 2.59
4f( 0.00) rc: 2.59
Ground state valence configuration:   2s02  2p02
Reading pseudopotential information in formatted form from C-gga.psf

Valence configuration for pseudopotential generation:
2s( 2.00) rc: 1.56
2p( 2.00) rc: 1.56
3d( 0.00) rc: 1.56
4f( 0.00) rc: 1.56
relmxkb: Read Max KB Ang. Momentum=    2 for species C-gga
relmxkb: Read Max KB Ang. Momentum=    2 for species Li-gga

<basis_specs>
Li-gga               Z=   3    Mass=  6.9400        Charge= 0.17977+309
Lmxo=0 Lmxkb= 2    BasisType=split      Semic=F
L=0  Nsemic=0  Cnfigmx=2
          i=1  nzeta=1  polorb=0  (2s)
            splnorm:   0.15000
               vcte:    0.0000
               rinn:    0.0000
               qcoe:    0.0000
               qyuk:    0.0000
               qwid:   0.10000E-01
                rcs:    0.0000
            lambdas:    1.0000
L=0  Nkbl=1  erefs: 0.17977+309
L=1  Nkbl=1  erefs: 0.17977+309
L=2  Nkbl=1  erefs: 0.17977+309
</basis_specs>

atom: Called for Li-gga                (Z =   3)

read_vps: Pseudopotential generation method:
read_vps: ATM 3.2.2 Troullier-Martins
Valence charge for ps generation:    1.00000

read_vps: Pseudopotential includes a core correction:
read_vps: Pseudo-core for xc-correction

xc_check: Exchange-correlation functional:
xc_check: GGA Perdew, Burke & Ernzerhof 1996
V l=0 = -2*Zval/r beyond r=  2.2278
V l=1 = -2*Zval/r beyond r=  2.2278
V l=2 = -2*Zval/r beyond r=  2.5245
All V_l potentials equal beyond r=  2.4622
This should be close to max(r_c) in ps generation
All pots = -2*Zval/r beyond r=  2.5245

VLOCAL1: 99.0% of the norm of Vloc inside      7.160 Ry
VLOCAL1: 99.9% of the norm of Vloc inside     16.318 Ry
atom: Maximum radius for 4*pi*r*r*local-pseudopot. charge    2.86079
atom: Maximum radius for r*vlocal+2*Zval:    2.43160
GHOST: No ghost state for L =  0
GHOST: No ghost state for L =  1
GHOST: No ghost state for L =  2

KBgen: Kleinman-Bylander projectors:
   l= 0   rc=  2.654023   el= -0.211234   Ekb=  1.742119   kbcos=  0.228463
   l= 1   rc=  2.721230   el= -0.080095   Ekb= -1.122375   kbcos= -0.147941
   l= 2   rc=  2.825246   el=  0.002001   Ekb= -0.207076   kbcos= -0.031965

KBgen: Total number of Kleinman-Bylander projectors:    9
atom: -------------------------------------------------------------------------

atom: SANKEY-TYPE ORBITALS:

SPLIT: Orbitals with angular momentum L= 0

SPLIT: Basis orbitals for state 2s

SPLIT: PAO cut-off radius determined from an
SPLIT: energy shift=  0.000735 Ry

   izeta = 1
                 lambda =    1.000000
                     rc =   11.897381
                 energy =   -0.210580
                kinetic =    0.143382
    potential(screened) =   -0.353962
       potential(ionic) =   -0.533453
atom: Total number of Sankey-type orbitals:  1

atm_pop: Valence configuration (for local Pseudopot. screening):
 2s( 1.00)
Vna: chval, zval:    1.00000   1.00000

Vna:  Cut-off radius for the neutral-atom potential:  11.897381
comcore: Pseudo-core radius Rcore=  3.450946

atom: _________________________________________________________________________

<basis_specs>
C-gga                Z=   6    Mass=  12.010        Charge= 0.17977+309
Lmxo=1 Lmxkb= 2    BasisType=split      Semic=F
L=0  Nsemic=0  Cnfigmx=2
          i=1  nzeta=1  polorb=0  (2s)
            splnorm:   0.15000
               vcte:    0.0000
               rinn:    0.0000
               qcoe:    0.0000
               qyuk:    0.0000
               qwid:   0.10000E-01
                rcs:    0.0000
            lambdas:    1.0000
L=1  Nsemic=0  Cnfigmx=2
          i=1  nzeta=1  polorb=0  (2p)
            splnorm:   0.15000
               vcte:    0.0000
               rinn:    0.0000
               qcoe:    0.0000
               qyuk:    0.0000
               qwid:   0.10000E-01
                rcs:    0.0000
            lambdas:    1.0000
L=0  Nkbl=1  erefs: 0.17977+309
L=1  Nkbl=1  erefs: 0.17977+309
L=2  Nkbl=1  erefs: 0.17977+309
</basis_specs>

atom: Called for C-gga                 (Z =   6)

read_vps: Pseudopotential generation method:
read_vps: ATM 3.2.2 Troullier-Martins
Valence charge for ps generation:    4.00000

xc_check: Exchange-correlation functional:
xc_check: GGA Perdew, Burke & Ernzerhof 1996
V l=0 = -2*Zval/r beyond r=  1.5227
V l=1 = -2*Zval/r beyond r=  1.5227
V l=2 = -2*Zval/r beyond r=  1.5227
All V_l potentials equal beyond r=  1.4851
This should be close to max(r_c) in ps generation
All pots = -2*Zval/r beyond r=  1.5227

VLOCAL1: 99.0% of the norm of Vloc inside     19.682 Ry
VLOCAL1: 99.9% of the norm of Vloc inside     44.856 Ry
atom: Maximum radius for 4*pi*r*r*local-pseudopot. charge    1.79142
atom: Maximum radius for r*vlocal+2*Zval:    1.54183
GHOST: No ghost state for L =  0
GHOST: No ghost state for L =  1
GHOST: No ghost state for L =  2

KBgen: Kleinman-Bylander projectors:
   l= 0   rc=  1.661951   el= -1.010689   Ekb=  5.289847   kbcos=  0.316429
   l= 1   rc=  1.661951   el= -0.388490   Ekb= -4.102504   kbcos= -0.351025
   l= 2   rc=  1.747182   el=  0.001971   Ekb= -1.006005   kbcos= -0.008530

KBgen: Total number of Kleinman-Bylander projectors:    9
atom: -------------------------------------------------------------------------

atom: SANKEY-TYPE ORBITALS:

[...]

SPLIT: Basis orbitals for state 2s

[...]

   izeta = 1
                 lambda =    1.000000
                     rc =    5.948690
                 energy =   -1.010099
                kinetic =    0.827121
    potential(screened) =   -1.837220
       potential(ionic) =   -5.392783

SPLIT: Orbitals with angular momentum L= 1

SPLIT: Basis orbitals for state 2p

SPLIT: PAO cut-off radius determined from an
SPLIT: energy shift=  0.000735 Ry

   izeta = 1
                 lambda =    1.000000
                     rc =    7.638387
                 energy =   -0.387843
                kinetic =    2.314739
    potential(screened) =   -2.702582
       potential(ionic) =   -6.092371
atom: Total number of Sankey-type orbitals:  4

atm_pop: Valence configuration (for local Pseudopot. screening):
 2s( 2.00)
 2p( 2.00)
Vna: chval, zval:    4.00000   4.00000

Vna:  Cut-off radius for the neutral-atom potential:   7.638387

atom: _________________________________________________________________________

prinput: Basis input ----------------------------------------------------------

PAO.BasisType split

%block ChemicalSpeciesLabel
    1    3 Li-gga                  # Species index, atomic number, species label
    2    6 C-gga                   # Species index, atomic number, species label
%endblock ChemicalSpeciesLabel

%block PAO.Basis                 # Define Basis set
Li-gga                1                    # Species label, number of l-shells
 n=2   0   1                         # n, l, Nzeta
  11.897
   1.000
C-gga                 2                    # Species label, number of l-shells
 n=2   0   1                         # n, l, Nzeta
   5.949
   1.000
 n=2   1   1                         # n, l, Nzeta
   7.638
   1.000
%endblock PAO.Basis

prinput: ----------------------------------------------------------------------

coor:   Atomic-coordinates input format  =     Cartesian coordinates
coor:                                          (in Angstroms)

siesta: Atomic coordinates (Bohr) and species
siesta:      0.00000   0.00000   0.00000  2        1
siesta:     -1.32825   2.30060   4.82430  1        2
siesta:     -2.74990   4.76296  24.12144  1        3
[...]
redata: Write Pulay info on disk                    =   F
redata: New DM Occupancy tolerance                  = 0.000000000001
redata: No kicks to SCF
redata: DM Mixing Weight for Kicks                  =     0.5000
redata: Require Harris convergence for SCF          =   F
redata: Harris energy tolerance for SCF             =     0.000100 eV
redata: Require DM convergence for SCF              =   T
redata: DM tolerance for SCF                        =     0.001000
redata: Require EDM convergence for SCF             =   F
redata: EDM tolerance for SCF                       =     0.005000 eV
redata: Require H convergence for SCF               =   T
redata: Hamiltonian tolerance for SCF               =     0.001000 eV
redata: Require (free) Energy convergence for SCF   =   T
redata: (free) Energy tolerance for SCF             =     0.001000 eV
redata: Using Saved Data (generic)                  =   F
redata: Use continuation files for DM               =   F
redata: Neglect nonoverlap interactions             =   F
redata: Method of Calculation                       = Diagonalization
redata: Electronic Temperature                      =   299.9869 K
redata: Fix the spin of the system                  =   F
redata: Dynamics option                             = Single-point calculation
mix.SCF: Pulay mixing                            = Pulay
mix.SCF:    Variant                              = stable
mix.SCF:    History steps                        = 4
mix.SCF:    Linear mixing weight                 =     0.250000
mix.SCF:    Mixing weight                        =     0.250000
mix.SCF:    SVD condition                        = 0.1000E-07
redata: ***********************************************************************

%block SCF.Mixers
  Pulay
%endblock SCF.Mixers

%block SCF.Mixer.Pulay
  # Mixing method
  method pulay
  variant stable

  # Mixing options
  weight 0.2500
  weight.linear 0.2500
  history 4
%endblock SCF.Mixer.Pulay

DM_history_depth set to one: no extrapolation allowed by default for geometry relaxation
Size of DM history Fstack: 1
Total number of electrons:    22.000000
Total ionic charge:    22.000000

* ProcessorY, Blocksize:    4   1

* Orbital distribution balance (max,min):     2     1

k-point displ. along   1 input, could be:     0.00    0.50
k-point displ. along   2 input, could be:     0.00    0.50
k-point displ. along   3 input, could be:     0.00    0.50
 Kpoints in:            8 . Kpoints trimmed:            8

siesta: k-grid: Number of k-points =     8
siesta: k-grid: Cutoff (effective) =     4.316 Ang
siesta: k-grid: Supercell and displacements
siesta: k-grid:    2   0   0      0.000
siesta: k-grid:    0   2   0      0.000
siesta: k-grid:    0   0   2      0.000

diag: Algorithm                                     = Expert
diag: Parallel over k                               =   T
diag: Use parallel 2D distribution                  =   T
diag: Parallel block-size                           = 1
diag: Parallel distribution                         =     4 x     4
diag: Used triangular part                          = Lower
diag: Absolute tolerance                            =  0.100E-15
diag: Orthogonalization factor                      =  0.100E-05

superc: Internal auxiliary supercell:     9 x     9 x     3  =     243
superc: Number of atoms, orbitals, and projectors:   4617   5346  41553

ts: **************************************************************
ts: Save H and S matrices                           =    F
ts: Save DM and EDM matrices                        =    F
ts: Only save the overlap matrix S                  =    F
ts: **************************************************************

************************ Begin: TS CHECKS AND WARNINGS ************************
************************ End: TS CHECKS AND WARNINGS **************************

                        Single-point calculation

outcoor: Atomic coordinates (Ang):
    0.00000000    0.00000000    0.00000000   2       1  C-gga
   -0.70288177    1.21742694    2.55290874   1       2  Li-gga
   -1.45518323    2.52045129   12.76451304   1       3  Li-gga
    1.45518323    2.52045129    2.55290874   1       4  Li-gga
    0.70288177    1.21742694   12.76451304   1       5  Li-gga
    1.40576354    0.00000000    2.55290874   1       6  Li-gga
    2.91036646    0.00000000   12.76451304   1       7  Li-gga
   -1.45518323    2.52045129    2.55290874   1       8  Li-gga
   -0.70288177    1.21742694   12.76451304   1       9  Li-gga
    0.70288177    1.21742694    2.55290874   1      10  Li-gga
    1.45518323    2.52045129   12.76451304   1      11  Li-gga
    2.91036646    0.00000000    2.55290874   1      12  Li-gga
    1.40576354    0.00000000   12.76451304   1      13  Li-gga
   -0.70288177    1.21742694    7.65871089   1      14  Li-gga
   -1.45518323    2.52045129    7.65871089   1      15  Li-gga
    1.45518323    2.52045129    7.65871089   1      16  Li-gga
    0.70288177    1.21742694    7.65871089   1      17  Li-gga
    1.40576354    0.00000000    7.65871089   1      18  Li-gga
    2.91036646    0.00000000    7.65871089   1      19  Li-gga

superc: Internal auxiliary supercell:     9 x     9 x     3  =     243
superc: Number of atoms, orbitals, and projectors:   4617   5346  41553

outcell: Unit cell vectors (Ang):
        4.316130    0.000000    0.000000
       -2.158065    3.737878    0.000000
        0.000000    0.000000   15.317422

outcell: Cell vector modules (Ang)   :    4.316130    4.316130   15.317422
outcell: Cell angles (23,13,12) (deg):     90.0000     90.0000    120.0000
outcell: Cell volume (Ang**3)        :    247.1185
<dSpData1D:S at geom step 0
  <sparsity:sparsity for geom step 0
    nrows_g=22 nrows=2 sparsity=3.4525 nnzs=1671, refcount: 7>
  <dData1D:(new from dSpData1D) n=1671, refcount: 1>
refcount: 1>
new_DM -- step:     1
Initializing Density Matrix...
DM filled with atomic data:
<dSpData2D:DM initialized from atoms
  <sparsity:sparsity for geom step 0
    nrows_g=22 nrows=2 sparsity=3.4525 nnzs=1671, refcount: 8>
  <dData2D:DM n=1671 m=1, refcount: 1>
refcount: 1>
No. of atoms with KB's overlaping orbs in proc 0. Max # of overlaps:     178     169
New grid distribution:   1
           1       1:   20    1:    5    1:   20
           2       1:   20    1:    5   21:   40
           3       1:   20    1:    5   41:   60
           4       1:   20    1:    5   61:   80
           5       1:   20    6:   10    1:   20
           6       1:   20    6:   10   21:   40
           7       1:   20    6:   10   41:   60
           8       1:   20    6:   10   61:   80
           9       1:   20   11:   15    1:   20
          10       1:   20   11:   15   21:   40
          11       1:   20   11:   15   41:   60
          12       1:   20   11:   15   61:   80
          13       1:   20   16:   20    1:   20
          14       1:   20   16:   20   21:   40
          15       1:   20   16:   20   41:   60
          16       1:   20   16:   20   61:   80

InitMesh: MESH =    40 x    40 x   160 =      256000
InitMesh: (bp) =    20 x    20 x    80 =       32000
InitMesh: Mesh cutoff (required, used) =   300.000   301.558 Ry
ExtMesh (bp) on 0 =   156 x   141 x   152 =     3343392
New grid distribution:   2
           1       1:   20    1:   10    1:    9
           2       1:   20    1:   10   19:   29
           3       1:   20    1:   10   52:   62
           4       1:   20    1:   10   72:   80
           5       1:   20    1:   10   10:   18
           6       1:   20    1:   10   30:   40
           7       1:   20    1:   10   41:   51
           8       1:   20    1:   10   63:   71
           9       1:   20   11:   20    1:    9
          10       1:   20   11:   20   19:   29
          11       1:   20   11:   20   52:   62
          12       1:   20   11:   20   72:   80
          13       1:   20   11:   20   10:   18
          14       1:   20   11:   20   30:   40
          15       1:   20   11:   20   41:   51
          16       1:   20   11:   20   63:   71
New grid distribution:   3
           1       1:   20    1:   10   11:   20
           2       1:   20    1:   10   31:   40
           3       1:   20    1:   10   51:   60
           4       1:   20    1:   10   71:   80
           5       1:   20    1:   10    1:   10
           6       1:   20    1:   10   21:   30
           7       1:   20    1:   10   41:   50
           8       1:   20    1:   10   61:   70
           9       1:   20   11:   20   11:   20
          10       1:   20   11:   20   31:   40
          11       1:   20   11:   20   51:   60
          12       1:   20   11:   20   71:   80
          13       1:   20   11:   20    1:   10
          14       1:   20   11:   20   21:   30
          15       1:   20   11:   20   41:   50
          16       1:   20   11:   20   61:   70
Setting up quadratic distribution...
ExtMesh (bp) on 0 =   156 x   146 x   141 =     3211416
PhiOnMesh: Number of (b)points on node 0 =                 1800
PhiOnMesh: nlist on node 0 =               161042

stepf: Fermi-Dirac step function

siesta: Program's energy decomposition (eV):
siesta: Ebs     =       158.560387
siesta: Eions   =       439.895300
siesta: Ena     =       154.852267
siesta: Ekin    =       294.688943
siesta: Enl     =        49.445817
siesta: Eso     =         0.000000
siesta: Edftu   =         0.000000
siesta: DEna    =       -30.429534
siesta: DUscf   =        96.801888
siesta: DUext   =         0.000000
siesta: Exc     =      -223.053402
siesta: eta*DQ  =         0.000000
siesta: Emadel  =         0.000000
siesta: Emeta   =         0.000000
siesta: Emolmec =        -7.331100
siesta: Ekinion =         0.000000
siesta: Eharris =       131.595999
siesta: Etot    =      -104.920421
siesta: FreeEng =      -104.932862

SCF Convergence by FreeE+DM+H criterion
|FreeE_i-FreeE_(i-1)| (eV) <     0.00100000
max |DM_out - DM_in|         :     0.0000095223
max |H_out - H_in|      (eV) :     0.0000228934
SCF cycle converged after 43 iterations

Using DM_out to compute the final energy and forces
No. of atoms with KB's overlaping orbs in proc 0. Max # of overlaps:     178     169

MM-Stress (kbar):      -11.90      -11.90       14.23        0.00        0.00       -0.00

siesta: E_KS(eV) =             -180.7683

siesta: E_KS - E_eggbox =      -180.7683

siesta: Atomic forces (eV/Ang):
     1   -0.000000   -0.000000   -0.000000
     2   -0.344894    0.597580   -0.518157
     3    0.344894   -0.597580    0.518157
     4   -0.344895   -0.597375   -0.518003
     5    0.344895    0.597375    0.518003
     6    0.689966    0.000103   -0.518157
     7   -0.689966   -0.000103    0.518157
     8    0.344894   -0.597580   -0.518157
     9   -0.344894    0.597580    0.518157
    10    0.344895    0.597375   -0.518003
    11   -0.344895   -0.597375    0.518003
    12   -0.689966   -0.000103   -0.518157
    13    0.689966    0.000103    0.518157
    14   -0.468563    0.811590   -0.000000
    15    0.468563   -0.811590   -0.000000
    16   -0.468574   -0.811594   -0.000000
    17    0.468574    0.811594   -0.000000
    18    0.937139    0.000007   -0.000000
    19   -0.937139   -0.000007   -0.000000
   Tot   -0.000000    0.000000    0.000000
   Max    0.937139
   Res    0.499162    sqrt( Sum f_i^2 / 3N )
   Max    0.937139    constrained

Stress tensor Voigt[x,y,z,yz,xz,xy] (kbar):    -1875.57    -1875.55      172.48       -0.00       -0.00        0.01
(Free)E + p*V (eV/cell)        3.1827
Target enthalpy (eV/cell)     -180.8044

siesta: Eigenvalues (eV):
  ik is       eps
   1  1  -13.3894  -13.2132  -13.1419   -8.9385   -2.8932   -1.7547   -1.7546    5.9797    5.9797    6.4527
           6.4527    6.8293    6.8293    7.8875    7.8875    7.9090    7.9091    9.7325    9.7326   23.9237
   24.1688   24.3706
   2  1  -12.3020  -11.8603  -11.8437  -11.7802  -11.7287  -11.5130   -8.5619   -5.0905   -4.2918   -4.0021
          -3.4418   -2.8425   -2.2468   -1.6566   -0.2026   -0.0985   18.1711   18.2927   18.4620   18.5921
   18.9223   19.1988
   3  1  -12.3020  -11.8603  -11.8437  -11.7802  -11.7287  -11.5130   -8.5619   -5.0905   -4.2918   -4.0021
          -3.4418   -2.8425   -2.2468   -1.6566   -0.2026   -0.0985   18.1711   18.2927   18.4620   18.5921
   18.9223   19.1988
   4  1  -12.3020  -11.8603  -11.8437  -11.7802  -11.7287  -11.5130   -8.5619   -5.0905   -4.2918   -4.0021
          -3.4418   -2.8425   -2.2467   -1.6566   -0.2027   -0.0985   18.1710   18.2927   18.4620   18.5921
   18.9223   19.1988
   5  1  -13.3841  -13.2579  -13.0839   -9.0028   -2.8246   -1.7544   -1.7543    5.7061    5.7061    6.6919
           6.6919    7.0803    7.0803    7.4221    7.4221    8.5133    8.5134    9.3801    9.3802   23.9747
   24.0674   24.4210
   6  1  -12.2885  -11.8790  -11.8544  -11.7780  -11.7289  -11.5155   -8.6088   -4.9132   -4.7187   -3.7224
          -3.5266   -2.2892   -2.2837   -2.2195   -0.2351    0.0526   18.0291   18.3310   18.5818   18.7752
   18.8624   19.0593
   7  1  -12.2885  -11.8790  -11.8544  -11.7780  -11.7289  -11.5155   -8.6088   -4.9132   -4.7187   -3.7224
          -3.5266   -2.2892   -2.2837   -2.2195   -0.2351    0.0526   18.0291   18.3310   18.5818   18.7752
   18.8624   19.0593
   8  1  -12.2885  -11.8790  -11.8544  -11.7780  -11.7289  -11.5155   -8.6088   -4.9132   -4.7187   -3.7224
          -3.5266   -2.2892   -2.2836   -2.2195   -0.2352    0.0526   18.0290   18.3310   18.5817   18.7751
   18.8624   19.0593
siesta: Fermi energy =      -2.223939 eV

siesta: Program's energy decomposition (eV):
siesta: Ebs     =      -177.727267
siesta: Eions   =       439.895300
siesta: Ena     =       154.852267
siesta: Ekin    =       236.242751
siesta: Enl     =        75.702784
siesta: Eso     =         0.000000
siesta: Edftu   =         0.000000
siesta: DEna    =        -0.392565
siesta: DUscf   =         2.812052
siesta: DUext   =         0.000000
siesta: Exc     =      -202.759192
siesta: eta*DQ  =         0.000000
siesta: Emadel  =         0.000000
siesta: Emeta   =         0.000000
siesta: Emolmec =        -7.331100
siesta: Ekinion =         0.000000
siesta: Eharris =      -180.768302
siesta: Etot    =      -180.768302
siesta: FreeEng =      -180.804390

siesta: Final energy (eV):
siesta:  Band Struct. =    -177.727267
siesta:       Kinetic =     236.242751
siesta:       Hartree =     147.098487
siesta:       Edftu   =       0.000000
siesta:       Eso     =       0.000000
siesta:    Ext. field =       0.000000
siesta:   Exch.-corr. =    -202.759192
siesta:  Ion-electron =    -505.740377
siesta:       Ion-ion =     151.721129
siesta:       Ekinion =       0.000000
siesta:         Total =    -180.768302
siesta:         Fermi =      -2.223939

siesta: Atomic forces (eV/Ang):
siesta:      1   -0.000000   -0.000000   -0.000000
siesta:      2   -0.344894    0.597580   -0.518157
siesta:      3    0.344894   -0.597580    0.518157
siesta:      4   -0.344895   -0.597375   -0.518003
siesta:      5    0.344895    0.597375    0.518003
siesta:      6    0.689966    0.000103   -0.518157
siesta:      7   -0.689966   -0.000103    0.518157
siesta:      8    0.344894   -0.597580   -0.518157
siesta:      9   -0.344894    0.597580    0.518157
siesta:     10    0.344895    0.597375   -0.518003
siesta:     11   -0.344895   -0.597375    0.518003
siesta:     12   -0.689966   -0.000103   -0.518157
siesta:     13    0.689966    0.000103    0.518157
siesta:     14   -0.468563    0.811590   -0.000000
siesta:     15    0.468563   -0.811590   -0.000000
siesta:     16   -0.468574   -0.811594   -0.000000
siesta:     17    0.468574    0.811594   -0.000000
siesta:     18    0.937139    0.000007   -0.000000
siesta:     19   -0.937139   -0.000007   -0.000000
siesta: ----------------------------------------
siesta:    Tot   -0.000000    0.000000    0.000000

siesta: Stress tensor (static) (eV/Ang**3):
siesta:    -1.170624    0.000008   -0.000000
siesta:     0.000008   -1.170615   -0.000000
siesta:    -0.000000   -0.000000    0.107650

siesta: Cell volume =        247.118544 Ang**3

siesta: Pressure (static):
siesta:                Solid            Molecule  Units
siesta:           0.00810888          0.00779617  Ry/Bohr**3
siesta:           0.74452956          0.71581751  eV/Ang**3
siesta:        1192.88076196       1146.87847783  kBar
(Free)E+ p_basis*V_orbitals  =        -156.808679
(Free)Eharris+ p_basis*V_orbitals  =        -156.808679

cite: Please see "LiC18_scf.bib" for an exhaustive BiBTeX file.
cite: Please clearly indicate Siesta version in published work: 4.1.5
cite: This calculation has made use of the following articles
cite: which are encouraged to be cited in a published work.
        Primary SIESTA paper
          DOI: www.doi.org/10.1088/0953-8984/14/11/302

>> End of run:   9-NOV-2022  14:46:55
Job completed