>> Start of run:   9-NOV-2022   8:10:23

reinit: Reading from standard input
reinit: Dumped input in INPUT_TMP.98851
************************** Dump of input data file ****************************
SystemName LiC18_scf
SystemLabel LiC18_scf
NumberOfAtoms   19
NumberOfSpecies 2
%block ChemicalSpeciesLabel
1  3   Li-gga
2  6   C-gga
%endblock ChemicalSpeciesLabel
PAO.BasisSize  DZ
PAO.EnergyShift  10 meV
%block PS.Lmax
C-gga   2
Li-gga  2
%endblock PS.Lmax
LatticeConstant 1.000000 Ang
%block LatticeVectors
	4.3161300000	0.0000000000	0.0000000000
	-2.1580650000	3.7378782260	0.0000000000
	0.0000000000	0.0000000000	12.6535223400
%endblock LatticeVectors
AtomicCoordinatesFormat Ang
%block AtomicCoordinatesAndAtomicSpecies
	0.00000000	0.00000000	0.00000000	2
	-0.70288177	1.21742694	2.10892461	1
	-1.45518323	2.52045129	10.54459773	1
	1.45518323	2.52045129	2.10892461	1
	0.70288177	1.21742694	10.54459773	1
	1.40576354	0.00000000	2.10892461	1
	2.91036646	0.00000000	10.54459773	1
	-1.45518323	2.52045129	2.10892461	1
	-0.70288177	1.21742694	10.54459773	1
	0.70288177	1.21742694	2.10892461	1
	1.45518323	2.52045129	10.54459773	1
	2.91036646	0.00000000	2.10892461	1
	1.40576354	0.00000000	10.54459773	1
	-0.70288177	1.21742694	6.32676117	1
	-1.45518323	2.52045129	6.32676117	1
	1.45518323	2.52045129	6.32676117	1
	0.70288177	1.21742694	6.32676117	1
	1.40576354	0.00000000	6.32676117	1
	2.91036646	0.00000000	6.32676117	1
%endblock AtomicCoordinatesAndAtomicSpecies
Kgrid_NoTRS  T
%block kgrid_MonkhorstPack
2       0       0       0.0
0       2       0       0.0
0       0       2       0.0
%endblock kgrid_MonkhorstPack
AtomCoorFormatOut Ang
BlockSize 1
#ProcessorY 12
Diag.ParallelOverK   T
Diag.DivideAndConquer F
MeshCutoff   300 Ry
SCF.FreeE.Tolerance 1E-3 eV
SCF.EDM.Tolerance   5E-3 eV
DM.Tolerance  1E-3
DM.Require.Energy.Convergence T
DM.NumberPulay 4
XC.Functional GGA
XC.Authors    PBE
UseSaveData        F
MD.TypeOfRun       CG
MD.VariableCell    F
MD.NumCGsteps      00
MD.MaxCGDispl      0.200000 Bohr
MD.MaxStressTol    1.000000 GPa
MD.MaxForceTol     0.010000 eV/Ang
WriteMDHistory T
WriteCoorStep T
WriteForces T
WriteCoorStep    T
WriteEigenValues T
WriteDM    F
MM.UnitsDistance Ang  # what this program prints out DO NOT CHANGE
MM.UnitsEnergy    eV  # what this program prints out DO NOT CHANGE
MM.Grimme.S6     0.75 # Grimme-paper for PBE (correct for your functional)
MM.Grimme.D     20.   # Grimme-paper (correct for your functional)
%block MM.Potentials
  1   1 Grimme     16.69      1.650 # Li, 10.1002/jcc.20495
  1   2 Grimme     17.40      2.277 # Li / C
  2   2 Grimme     18.14      2.904 # C, 10.1002/jcc.20495
%endblock MM.Potentials
#%block ProjectedDensityOfStates
# -200.0  120.0  0.4  12800  eV
#%endblock ProjectedDensityOfStates
************************** End of input data file *****************************

reinit: -----------------------------------------------------------------------
reinit: System Name: LiC18_scf
reinit: -----------------------------------------------------------------------
reinit: System Label: LiC18_scf
reinit: -----------------------------------------------------------------------
Reading two-body potentials
Grimme - two-body potential between 1 and 1
Grimme - two-body potential between 1 and 2
Grimme - two-body potential between 2 and 2

initatom: Reading input for the pseudopotentials and atomic orbitals ----------
Species number:   1 Atomic number:    3 Label: Li-gga
Species number:   2 Atomic number:    6 Label: C-gga

Ground state valence configuration:   2s01
Reading pseudopotential information in formatted form from Li-gga.psf

Valence configuration for pseudopotential generation:
2s( 1.00) rc: 2.28
2p( 0.00) rc: 2.28
3d( 0.00) rc: 2.59
4f( 0.00) rc: 2.59
Ground state valence configuration:   2s02  2p02
Reading pseudopotential information in formatted form from C-gga.psf

Valence configuration for pseudopotential generation:
2s( 2.00) rc: 1.56
2p( 2.00) rc: 1.56
3d( 0.00) rc: 1.56
4f( 0.00) rc: 1.56
relmxkb: Read Max KB Ang. Momentum=    2 for species C-gga
relmxkb: Read Max KB Ang. Momentum=    2 for species Li-gga

<basis_specs>
Li-gga               Z=   3    Mass=  6.9400        Charge= 0.17977+309
Lmxo=0 Lmxkb= 2    BasisType=split      Semic=F
L=0  Nsemic=0  Cnfigmx=2
          i=1  nzeta=2  polorb=0  (2s)
            splnorm:   0.15000
               vcte:    0.0000
               rinn:    0.0000
               qcoe:    0.0000
               qyuk:    0.0000
               qwid:   0.10000E-01
                rcs:    0.0000      0.0000
            lambdas:    1.0000      1.0000
L=0  Nkbl=1  erefs: 0.17977+309
L=1  Nkbl=1  erefs: 0.17977+309
L=2  Nkbl=1  erefs: 0.17977+309
</basis_specs>

atom: Called for Li-gga                (Z =   3)

read_vps: Pseudopotential generation method:
read_vps: ATM 3.2.2 Troullier-Martins
Valence charge for ps generation:    1.00000

read_vps: Pseudopotential includes a core correction:
read_vps: Pseudo-core for xc-correction

xc_check: Exchange-correlation functional:
xc_check: GGA Perdew, Burke & Ernzerhof 1996
V l=0 = -2*Zval/r beyond r=  2.2278
V l=1 = -2*Zval/r beyond r=  2.2278
V l=2 = -2*Zval/r beyond r=  2.5245
All V_l potentials equal beyond r=  2.4622
This should be close to max(r_c) in ps generation
All pots = -2*Zval/r beyond r=  2.5245

VLOCAL1: 99.0% of the norm of Vloc inside      7.160 Ry
VLOCAL1: 99.9% of the norm of Vloc inside     16.318 Ry
atom: Maximum radius for 4*pi*r*r*local-pseudopot. charge    2.86079
atom: Maximum radius for r*vlocal+2*Zval:    2.43160
GHOST: No ghost state for L =  0
GHOST: No ghost state for L =  1
GHOST: No ghost state for L =  2

KBgen: Kleinman-Bylander projectors:
   l= 0   rc=  2.654023   el= -0.211234   Ekb=  1.742119   kbcos=  0.228463
   l= 1   rc=  2.721230   el= -0.080095   Ekb= -1.122375   kbcos= -0.147941
   l= 2   rc=  2.825246   el=  0.002001   Ekb= -0.207076   kbcos= -0.031965

KBgen: Total number of Kleinman-Bylander projectors:    9
atom: -------------------------------------------------------------------------

atom: SANKEY-TYPE ORBITALS:
atom: Selected multiple-zeta basis: split

SPLIT: Orbitals with angular momentum L= 0

SPLIT: Basis orbitals for state 2s

SPLIT: PAO cut-off radius determined from an
SPLIT: energy shift=  0.000735 Ry

   izeta = 1
                 lambda =    1.000000
                     rc =   11.897381
                 energy =   -0.210580
                kinetic =    0.143382
    potential(screened) =   -0.353962
       potential(ionic) =   -0.533453

   izeta = 2
                 rmatch =    8.489163
              splitnorm =    0.150000
                 energy =   -0.186081
                kinetic =    0.225882
    potential(screened) =   -0.411964
       potential(ionic) =   -0.593024
atom: Total number of Sankey-type orbitals:  2

atm_pop: Valence configuration (for local Pseudopot. screening):
 2s( 1.00)
Vna: chval, zval:    1.00000   1.00000

Vna:  Cut-off radius for the neutral-atom potential:  11.897381
comcore: Pseudo-core radius Rcore=  3.450946

atom: _________________________________________________________________________

<basis_specs>
C-gga                Z=   6    Mass=  12.010        Charge= 0.17977+309
Lmxo=1 Lmxkb= 2    BasisType=split      Semic=F
L=0  Nsemic=0  Cnfigmx=2
          i=1  nzeta=2  polorb=0  (2s)
            splnorm:   0.15000
               vcte:    0.0000
               rinn:    0.0000
               qcoe:    0.0000
               qyuk:    0.0000
               qwid:   0.10000E-01
                rcs:    0.0000      0.0000
            lambdas:    1.0000      1.0000
L=1  Nsemic=0  Cnfigmx=2
          i=1  nzeta=2  polorb=0  (2p)
            splnorm:   0.15000
               vcte:    0.0000
               rinn:    0.0000
               qcoe:    0.0000
               qyuk:    0.0000
               qwid:   0.10000E-01
                rcs:    0.0000      0.0000
            lambdas:    1.0000      1.0000
L=0  Nkbl=1  erefs: 0.17977+309
L=1  Nkbl=1  erefs: 0.17977+309
L=2  Nkbl=1  erefs: 0.17977+309
</basis_specs>

atom: Called for C-gga                 (Z =   6)

read_vps: Pseudopotential generation method:
read_vps: ATM 3.2.2 Troullier-Martins
Valence charge for ps generation:    4.00000

xc_check: Exchange-correlation functional:
xc_check: GGA Perdew, Burke & Ernzerhof 1996
V l=0 = -2*Zval/r beyond r=  1.5227
V l=1 = -2*Zval/r beyond r=  1.5227
V l=2 = -2*Zval/r beyond r=  1.5227
All V_l potentials equal beyond r=  1.4851
This should be close to max(r_c) in ps generation
All pots = -2*Zval/r beyond r=  1.5227

VLOCAL1: 99.0% of the norm of Vloc inside     19.682 Ry
VLOCAL1: 99.9% of the norm of Vloc inside     44.856 Ry
atom: Maximum radius for 4*pi*r*r*local-pseudopot. charge    1.79142
atom: Maximum radius for r*vlocal+2*Zval:    1.54183
GHOST: No ghost state for L =  0
GHOST: No ghost state for L =  1
GHOST: No ghost state for L =  2

KBgen: Kleinman-Bylander projectors:
   l= 0   rc=  1.661951   el= -1.010689   Ekb=  5.289847   kbcos=  0.316429
   l= 1   rc=  1.661951   el= -0.388490   Ekb= -4.102504   kbcos= -0.351025
   l= 2   rc=  1.747182   el=  0.001971   Ekb= -1.006005   kbcos= -0.008530

KBgen: Total number of Kleinman-Bylander projectors:    9
atom: -------------------------------------------------------------------------

atom: SANKEY-TYPE ORBITALS:
atom: Selected multiple-zeta basis: split

[...]

SPLIT: Basis orbitals for state 2s

[...]

   izeta = 2
                 rmatch =    3.518811
              splitnorm =    0.150000
                 energy =   -0.877891
                kinetic =    1.289227
    potential(screened) =   -2.167118
       potential(ionic) =   -5.982073

SPLIT: Orbitals with angular momentum L= 1

SPLIT: Basis orbitals for state 2p

SPLIT: PAO cut-off radius determined from an
SPLIT: energy shift=  0.000735 Ry

   izeta = 1
                 lambda =    1.000000
                     rc =    7.638387
                 energy =   -0.387843
                kinetic =    2.314739
    potential(screened) =   -2.702582
       potential(ionic) =   -6.092371

   izeta = 2
                 rmatch =    3.840617
              splitnorm =    0.150000
                 energy =   -0.270479
                kinetic =    3.438347
    potential(screened) =   -3.708826
       potential(ionic) =   -7.497707
atom: Total number of Sankey-type orbitals:  8

atm_pop: Valence configuration (for local Pseudopot. screening):
 2s( 2.00)
 2p( 2.00)
Vna: chval, zval:    4.00000   4.00000

Vna:  Cut-off radius for the neutral-atom potential:   7.638387

atom: _________________________________________________________________________

prinput: Basis input ----------------------------------------------------------

PAO.BasisType split

%block ChemicalSpeciesLabel
    1    3 Li-gga                  # Species index, atomic number, species label
    2    6 C-gga                   # Species index, atomic number, species label
%endblock ChemicalSpeciesLabel

%block PAO.Basis                 # Define Basis set
Li-gga                1                    # Species label, number of l-shells
 n=2   0   2                         # n, l, Nzeta
  11.897      8.489
   1.000      1.000
[...]
%endblock SCF.Mixers

%block SCF.Mixer.Pulay
  # Mixing method
  method pulay
  variant stable

  # Mixing options
  weight 0.2500
  weight.linear 0.2500
  history 4
%endblock SCF.Mixer.Pulay

DM_history_depth set to one: no extrapolation allowed by default for geometry relaxation
Size of DM history Fstack: 1
Total number of electrons:    22.000000
Total ionic charge:    22.000000

* ProcessorY, Blocksize:    4   1

* Orbital distribution balance (max,min):     3     2

k-point displ. along   1 input, could be:     0.00    0.50
k-point displ. along   2 input, could be:     0.00    0.50
k-point displ. along   3 input, could be:     0.00    0.50
 Kpoints in:            8 . Kpoints trimmed:            8

siesta: k-grid: Number of k-points =     8
siesta: k-grid: Cutoff (effective) =     4.316 Ang
siesta: k-grid: Supercell and displacements
siesta: k-grid:    2   0   0      0.000
siesta: k-grid:    0   2   0      0.000
siesta: k-grid:    0   0   2      0.000

diag: Algorithm                                     = Expert
diag: Parallel over k                               =   T
diag: Use parallel 2D distribution                  =   T
diag: Parallel block-size                           = 1
diag: Parallel distribution                         =     4 x     4
diag: Used triangular part                          = Lower
diag: Absolute tolerance                            =  0.100E-15
diag: Orthogonalization factor                      =  0.100E-05

superc: Internal auxiliary supercell:     9 x     9 x     3  =     243
superc: Number of atoms, orbitals, and projectors:   4617  10692  41553

ts: **************************************************************
ts: Save H and S matrices                           =    F
ts: Save DM and EDM matrices                        =    F
ts: Only save the overlap matrix S                  =    F
ts: **************************************************************

************************ Begin: TS CHECKS AND WARNINGS ************************
************************ End: TS CHECKS AND WARNINGS **************************

                        Single-point calculation

outcoor: Atomic coordinates (Ang):
    0.00000000    0.00000000    0.00000000   2       1  C-gga
   -0.70288177    1.21742694    2.10892461   1       2  Li-gga
   -1.45518323    2.52045129   10.54459773   1       3  Li-gga
    1.45518323    2.52045129    2.10892461   1       4  Li-gga
    0.70288177    1.21742694   10.54459773   1       5  Li-gga
    1.40576354    0.00000000    2.10892461   1       6  Li-gga
    2.91036646    0.00000000   10.54459773   1       7  Li-gga
   -1.45518323    2.52045129    2.10892461   1       8  Li-gga
   -0.70288177    1.21742694   10.54459773   1       9  Li-gga
    0.70288177    1.21742694    2.10892461   1      10  Li-gga
    1.45518323    2.52045129   10.54459773   1      11  Li-gga
    2.91036646    0.00000000    2.10892461   1      12  Li-gga
    1.40576354    0.00000000   10.54459773   1      13  Li-gga
   -0.70288177    1.21742694    6.32676117   1      14  Li-gga
   -1.45518323    2.52045129    6.32676117   1      15  Li-gga
    1.45518323    2.52045129    6.32676117   1      16  Li-gga
    0.70288177    1.21742694    6.32676117   1      17  Li-gga
    1.40576354    0.00000000    6.32676117   1      18  Li-gga
    2.91036646    0.00000000    6.32676117   1      19  Li-gga

superc: Internal auxiliary supercell:     9 x     9 x     3  =     243
superc: Number of atoms, orbitals, and projectors:   4617  10692  41553

outcell: Unit cell vectors (Ang):
        4.316130    0.000000    0.000000
       -2.158065    3.737878    0.000000
        0.000000    0.000000   12.653522

outcell: Cell vector modules (Ang)   :    4.316130    4.316130   12.653522
outcell: Cell angles (23,13,12) (deg):     90.0000     90.0000    120.0000
outcell: Cell volume (Ang**3)        :    204.1414
<dSpData1D:S at geom step 0
  <sparsity:sparsity for geom step 0
    nrows_g=44 nrows=3 sparsity=2.6767 nnzs=5182, refcount: 7>
  <dData1D:(new from dSpData1D) n=5182, refcount: 1>
refcount: 1>
new_DM -- step:     1
Initializing Density Matrix...
DM filled with atomic data:
<dSpData2D:DM initialized from atoms
  <sparsity:sparsity for geom step 0
    nrows_g=44 nrows=3 sparsity=2.6767 nnzs=5182, refcount: 8>
  <dData2D:DM n=5182 m=1, refcount: 1>
refcount: 1>
No. of atoms with KB's overlaping orbs in proc 0. Max # of overlaps:     263     271
New grid distribution:   1
           1       1:   20    1:    5    1:   18
           2       1:   20    1:    5   19:   36
           3       1:   20    1:    5   37:   54
           4       1:   20    1:    5   55:   72
           5       1:   20    6:   10    1:   18
           6       1:   20    6:   10   19:   36
           7       1:   20    6:   10   37:   54
           8       1:   20    6:   10   55:   72
           9       1:   20   11:   15    1:   18
          10       1:   20   11:   15   19:   36
          11       1:   20   11:   15   37:   54
          12       1:   20   11:   15   55:   72
          13       1:   20   16:   20    1:   18
          14       1:   20   16:   20   19:   36
          15       1:   20   16:   20   37:   54
          16       1:   20   16:   20   55:   72

InitMesh: MESH =    40 x    40 x   144 =      230400
InitMesh: (bp) =    20 x    20 x    72 =       28800
InitMesh: Mesh cutoff (required, used) =   300.000   316.498 Ry
ExtMesh (bp) on 0 =   156 x   141 x   162 =     3563352
New grid distribution:   2
           1      11:   20    1:   10    1:   17
           2      11:   20    1:   10   18:   36
           3       1:   10    1:   10   37:   55
           4       1:   10    1:   10   56:   72
           5       1:   10    1:   10    1:   17
           6       1:   10    1:   10   18:   36
           7      11:   20    1:   10   37:   55
           8      11:   20    1:   10   56:   72
           9      11:   20   11:   20    1:   17
          10      11:   20   11:   20   18:   36
          11       1:   10   11:   20   37:   55
          12       1:   10   11:   20   56:   72
          13       1:   10   11:   20    1:   17
          14       1:   10   11:   20   18:   36
          15      11:   20   11:   20   37:   55
          16      11:   20   11:   20   56:   72
New grid distribution:   3
           1       1:   10    1:   10    1:   18
           2       1:   10    1:   10   19:   36
           3       1:   10    1:   10   37:   54
           4       1:   10    1:   10   55:   72
           5      11:   20    1:   10    1:   18
           6      11:   20    1:   10   19:   36
           7      11:   20    1:   10   37:   54
           8      11:   20    1:   10   55:   72
           9       1:   10   11:   20    1:   18
          10       1:   10   11:   20   19:   36
          11       1:   10   11:   20   37:   54
          12       1:   10   11:   20   55:   72
          13      11:   20   11:   20    1:   18
          14      11:   20   11:   20   19:   36
          15      11:   20   11:   20   37:   54
          16      11:   20   11:   20   55:   72
Setting up quadratic distribution...
ExtMesh (bp) on 0 =   146 x   146 x   161 =     3431876
PhiOnMesh: Number of (b)points on node 0 =                 1700
PhiOnMesh: nlist on node 0 =               242533

stepf: Fermi-Dirac step function

siesta: Program's energy decomposition (eV):
siesta: Ebs     =      -118.605039
siesta: Eions   =       439.895300
siesta: Ena     =       147.282906
siesta: Ekin    =       221.644922
siesta: Enl     =        59.451313
siesta: Eso     =         0.000000
siesta: Edftu   =         0.000000
siesta: DEna    =         0.038550
siesta: DUscf   =        28.386212
siesta: DUext   =         0.000000
siesta: Exc     =      -211.953262
siesta: eta*DQ  =         0.000000
siesta: Emadel  =         0.000000
siesta: Emeta   =         0.000000
siesta: Emolmec =        -7.898044
siesta: Ekinion =         0.000000
siesta: Eharris =      -118.539433
siesta: Etot    =      -202.942703
siesta: FreeEng =      -202.967224

SCF Convergence by FreeE+DM+H criterion
|FreeE_i-FreeE_(i-1)| (eV) <     0.00100000
max |DM_out - DM_in|         :     0.0005520061
max |H_out - H_in|      (eV) :     0.0000511828
SCF cycle converged after 20 iterations

Using DM_out to compute the final energy and forces
No. of atoms with KB's overlaping orbs in proc 0. Max # of overlaps:     263     271

MM-Stress (kbar):      -10.49      -10.49       27.46        0.00        0.00       -0.00

siesta: E_KS(eV) =             -225.2591

siesta: E_KS - E_eggbox =      -225.2591

siesta: Atomic forces (eV/Ang):
     1    0.000000   -0.000000    0.000000
     2   -0.010464    0.018112   -2.240437
     3    0.010464   -0.018112    2.240437
     4   -0.010501   -0.018188   -2.240504
     5    0.010501    0.018188    2.240504
     6    0.020917   -0.000006   -2.240437
     7   -0.020917    0.000006    2.240437
     8    0.010464   -0.018112   -2.240437
     9   -0.010464    0.018112    2.240437
    10    0.010501    0.018188   -2.240504
    11   -0.010501   -0.018188    2.240504
    12   -0.020917    0.000006   -2.240437
    13    0.020917   -0.000006    2.240437
    14   -0.341417    0.591302   -0.000000
    15    0.341417   -0.591303   -0.000000
    16   -0.341425   -0.591366   -0.000000
    17    0.341425    0.591366   -0.000000
    18    0.682792   -0.000025   -0.000000
    19   -0.682792    0.000025   -0.000000
   Tot    0.000000   -0.000000   -0.000000
   Max    2.240504
   Res    1.051637    sqrt( Sum f_i^2 / 3N )
   Max    2.240504    constrained

Stress tensor Voigt[x,y,z,yz,xz,xy] (kbar):    -1218.29    -1218.30      547.18        0.00        0.00       -0.01
(Free)E + p*V (eV/cell)     -145.0392
Target enthalpy (eV/cell)     -225.2851

siesta: Eigenvalues (eV):
  ik is       eps
   1  1  -17.0505  -14.4977  -13.8106  -12.9065  -12.5273  -10.2587   -8.3013   -7.4229   -7.4229   -3.3509
          -0.1351   -0.1350   -0.0417   -0.0417    0.1145    0.1145    0.4398    0.4941    0.4941    3.6027
    3.6027    4.7846    4.7847    8.5332    8.5335   10.7974   14.3804   14.3804   15.5327   15.5328
   15.5596   15.5596   22.4680   23.1461   23.6704   23.8748   23.8749   50.7845   51.3541   60.0296
   60.0296   64.1684   64.1684   98.1675
   2  1  -16.7057  -13.7146  -13.2731  -12.8469  -12.6228  -12.1969  -11.4969  -10.9503   -9.5626   -8.9747
          -8.5145   -8.1164   -7.2093   -6.6030   -5.8599   -5.3457   -4.6090   -4.3423   -3.5640   -3.1294
    1.7504    3.0523    4.6389    4.8106    8.0170    9.6977   12.9221   17.4317   17.5493   17.9173
   18.1194   18.3963   18.6175   20.0982   23.1965   27.5637   29.9786   41.3773   52.2697   53.0759
   53.7847   54.0574   54.9703   58.4181
   3  1  -16.7057  -13.7146  -13.2731  -12.8469  -12.6228  -12.1969  -11.4969  -10.9503   -9.5626   -8.9747
          -8.5145   -8.1164   -7.2093   -6.6030   -5.8599   -5.3457   -4.6090   -4.3423   -3.5640   -3.1294
    1.7504    3.0523    4.6389    4.8106    8.0170    9.6977   12.9221   17.4317   17.5493   17.9173
   18.1194   18.3963   18.6175   20.0982   23.1965   27.5637   29.9786   41.3773   52.2697   53.0759
   53.7847   54.0574   54.9703   58.4181
   4  1  -16.7057  -13.7146  -13.2731  -12.8469  -12.6228  -12.1970  -11.4969  -10.9503   -9.5626   -8.9747
          -8.5145   -8.1164   -7.2093   -6.6029   -5.8599   -5.3457   -4.6090   -4.3422   -3.5640   -3.1294
    1.7504    3.0523    4.6386    4.8108    8.0170    9.6977   12.9221   17.4316   17.5493   17.9173
   18.1194   18.3963   18.6175   20.0982   23.1965   27.5637   29.9786   41.3772   52.2697   53.0759
   53.7847   54.0573   54.9703   58.4181
   5  1  -16.9962  -14.6023  -13.9529  -12.5984  -12.1792   -8.9240   -7.4066   -7.4066   -6.3003   -2.1443
          -2.1443   -1.9719   -1.9719    1.5286    2.6542    2.6542    2.7261    3.5290    3.5290    3.9080
    3.9081    5.7138    5.7141   10.5532   10.5532   18.5230   18.5231   18.7554   20.1896   20.1897
   20.2381   20.2382   20.3043   20.3044   21.9134   23.1324   23.1325   23.7311   23.9149   23.9149
   24.2075   45.6633   91.9531   92.3664
   6  1  -16.5387  -13.2391  -13.1332  -12.8786  -12.7376  -12.1296  -11.4660  -10.7431   -8.8603   -8.0752
          -7.5779   -7.5564   -7.3587   -7.0381   -6.3704   -6.2657   -5.9139   -4.6480   -4.1691   -1.0764
    0.9628    4.9105    5.4047    5.6294    9.8401   10.1813   15.3747   17.3851   17.6757   18.2561
   18.5585   18.5700   18.7160   19.0927   31.1510   32.2102   51.4510   53.1861   54.2924   55.1079
   55.3471   59.6408   62.5903   62.9892
   7  1  -16.5387  -13.2391  -13.1332  -12.8786  -12.7376  -12.1296  -11.4660  -10.7431   -8.8603   -8.0752
          -7.5779   -7.5564   -7.3587   -7.0381   -6.3704   -6.2657   -5.9139   -4.6480   -4.1691   -1.0764
    0.9628    4.9105    5.4047    5.6294    9.8401   10.1813   15.3747   17.3851   17.6757   18.2561
   18.5585   18.5700   18.7160   19.0927   31.1510   32.2102   51.4510   53.1861   54.2924   55.1079
   55.3471   59.6408   62.5903   62.9892
   8  1  -16.5387  -13.2391  -13.1332  -12.8786  -12.7376  -12.1297  -11.4660  -10.7431   -8.8603   -8.0752
          -7.5779   -7.5564   -7.3587   -7.0381   -6.3704   -6.2657   -5.9139   -4.6480   -4.1691   -1.0764
    0.9631    4.9105    5.4047    5.6291    9.8401   10.1813   15.3747   17.3851   17.6757   18.2561
   18.5585   18.5700   18.7160   19.0927   31.1511   32.2102   51.4510   53.1861   54.2924   55.1079
   55.3470   59.6408   62.5903   62.9891
siesta: Fermi energy =      -7.400780 eV

siesta: Program's energy decomposition (eV):
siesta: Ebs     =      -253.139168
siesta: Eions   =       439.895300
siesta: Ena     =       147.282906
siesta: Ekin    =       188.529649
siesta: Enl     =        68.163698
siesta: Eso     =         0.000000
siesta: Edftu   =         0.000000
siesta: DEna    =        19.951110
siesta: DUscf   =         2.106868
siesta: DUext   =         0.000000
siesta: Exc     =      -203.499977
siesta: eta*DQ  =         0.000000
siesta: Emadel  =         0.000000
siesta: Emeta   =         0.000000
siesta: Emolmec =        -7.898044
siesta: Ekinion =         0.000000
siesta: Eharris =      -225.259091
siesta: Etot    =      -225.259089
siesta: FreeEng =      -225.285092

siesta: Final energy (eV):
siesta:  Band Struct. =    -253.139168
siesta:       Kinetic =     188.529649
siesta:       Hartree =     114.104890
siesta:       Edftu   =       0.000000
siesta:       Eso     =       0.000000
siesta:    Ext. field =       0.000000
siesta:   Exch.-corr. =    -203.499977
siesta:  Ion-electron =    -465.609113
siesta:       Ion-ion =     149.113505
siesta:       Ekinion =       0.000000
siesta:         Total =    -225.259089
siesta:         Fermi =      -7.400780

siesta: Atomic forces (eV/Ang):
siesta:      1    0.000000   -0.000000    0.000000
siesta:      2   -0.010464    0.018112   -2.240437
siesta:      3    0.010464   -0.018112    2.240437
siesta:      4   -0.010501   -0.018188   -2.240504
siesta:      5    0.010501    0.018188    2.240504
siesta:      6    0.020917   -0.000006   -2.240437
siesta:      7   -0.020917    0.000006    2.240437
siesta:      8    0.010464   -0.018112   -2.240437
siesta:      9   -0.010464    0.018112    2.240437
siesta:     10    0.010501    0.018188   -2.240504
siesta:     11   -0.010501   -0.018188    2.240504
siesta:     12   -0.020917    0.000006   -2.240437
siesta:     13    0.020917   -0.000006    2.240437
siesta:     14   -0.341417    0.591302   -0.000000
siesta:     15    0.341417   -0.591303   -0.000000
siesta:     16   -0.341425   -0.591366   -0.000000
siesta:     17    0.341425    0.591366   -0.000000
siesta:     18    0.682792   -0.000025   -0.000000
siesta:     19   -0.682792    0.000025   -0.000000
siesta: ----------------------------------------
siesta:    Tot    0.000000   -0.000000   -0.000000

siesta: Stress tensor (static) (eV/Ang**3):
siesta:    -0.760391   -0.000006    0.000000
siesta:    -0.000006   -0.760397    0.000000
siesta:     0.000000    0.000000    0.341519

siesta: Cell volume =        204.141406 Ang**3

siesta: Pressure (static):
siesta:                Solid            Molecule  Units
siesta:           0.00428125          0.00232275  Ry/Bohr**3
siesta:           0.39308969          0.21326739  eV/Ang**3
siesta:         629.80593135        341.69571559  kBar
(Free)E+ p_basis*V_orbitals  =        -192.679282
(Free)Eharris+ p_basis*V_orbitals  =        -192.679284

cite: Please see "LiC18_scf.bib" for an exhaustive BiBTeX file.
cite: Please clearly indicate Siesta version in published work: 4.1.5
cite: This calculation has made use of the following articles
cite: which are encouraged to be cited in a published work.
        Primary SIESTA paper
          DOI: www.doi.org/10.1088/0953-8984/14/11/302

>> End of run:   9-NOV-2022   8:10:42
Job completed