>> Start of run:   9-NOV-2022   8:05:24

reinit: Reading from standard input
reinit: Dumped input in INPUT_TMP.99018
************************** Dump of input data file ****************************
SystemName LiC18_scf
SystemLabel LiC18_scf
NumberOfAtoms   19
NumberOfSpecies 2
%block ChemicalSpeciesLabel
1  3   Li-gga
2  6   C-gga
%endblock ChemicalSpeciesLabel
PAO.BasisSize  DZ
PAO.EnergyShift  10 meV
%block PS.Lmax
C-gga   2
Li-gga  2
%endblock PS.Lmax
LatticeConstant 1.000000 Ang
%block LatticeVectors
	4.3161300000	0.0000000000	0.0000000000
	-2.1580650000	3.7378782260	0.0000000000
	0.0000000000	0.0000000000	6.2157653600
%endblock LatticeVectors
AtomicCoordinatesFormat Ang
%block AtomicCoordinatesAndAtomicSpecies
	0.00000000	0.00000000	0.00000000	2
	-0.70288177	1.21742694	1.03596297	1
	-1.45518323	2.52045129	5.17980239	1
	1.45518323	2.52045129	1.03596297	1
	0.70288177	1.21742694	5.17980239	1
	1.40576354	0.00000000	1.03596297	1
	2.91036646	0.00000000	5.17980239	1
	-1.45518323	2.52045129	1.03596297	1
	-0.70288177	1.21742694	5.17980239	1
	0.70288177	1.21742694	1.03596297	1
	1.45518323	2.52045129	5.17980239	1
	2.91036646	0.00000000	1.03596297	1
	1.40576354	0.00000000	5.17980239	1
	-0.70288177	1.21742694	3.10788268	1
	-1.45518323	2.52045129	3.10788268	1
	1.45518323	2.52045129	3.10788268	1
	0.70288177	1.21742694	3.10788268	1
	1.40576354	0.00000000	3.10788268	1
	2.91036646	0.00000000	3.10788268	1
%endblock AtomicCoordinatesAndAtomicSpecies
Kgrid_NoTRS  T
%block kgrid_MonkhorstPack
2       0       0       0.0
0       2       0       0.0
0       0       2       0.0
%endblock kgrid_MonkhorstPack
AtomCoorFormatOut Ang
BlockSize 1
#ProcessorY 12
Diag.ParallelOverK   T
Diag.DivideAndConquer F
MeshCutoff   300 Ry
SCF.FreeE.Tolerance 1E-3 eV
SCF.EDM.Tolerance   5E-3 eV
DM.Tolerance  1E-3
DM.Require.Energy.Convergence T
DM.NumberPulay 4
XC.Functional GGA
XC.Authors    PBE
UseSaveData        F
MD.TypeOfRun       CG
MD.VariableCell    F
MD.NumCGsteps      00
MD.MaxCGDispl      0.200000 Bohr
MD.MaxStressTol    1.000000 GPa
MD.MaxForceTol     0.010000 eV/Ang
WriteMDHistory T
WriteCoorStep T
WriteForces T
WriteCoorStep    T
WriteEigenValues T
WriteDM    F
MM.UnitsDistance Ang  # what this program prints out DO NOT CHANGE
MM.UnitsEnergy    eV  # what this program prints out DO NOT CHANGE
MM.Grimme.S6     0.75 # Grimme-paper for PBE (correct for your functional)
MM.Grimme.D     20.   # Grimme-paper (correct for your functional)
%block MM.Potentials
  1   1 Grimme     16.69      1.650 # Li, 10.1002/jcc.20495
  1   2 Grimme     17.40      2.277 # Li / C
  2   2 Grimme     18.14      2.904 # C, 10.1002/jcc.20495
%endblock MM.Potentials
#%block ProjectedDensityOfStates
# -200.0  120.0  0.4  12800  eV
#%endblock ProjectedDensityOfStates
************************** End of input data file *****************************

reinit: -----------------------------------------------------------------------
reinit: System Name: LiC18_scf
reinit: -----------------------------------------------------------------------
reinit: System Label: LiC18_scf
reinit: -----------------------------------------------------------------------
Reading two-body potentials
Grimme - two-body potential between 1 and 1
Grimme - two-body potential between 1 and 2
Grimme - two-body potential between 2 and 2

initatom: Reading input for the pseudopotentials and atomic orbitals ----------
Species number:   1 Atomic number:    3 Label: Li-gga
Species number:   2 Atomic number:    6 Label: C-gga

Ground state valence configuration:   2s01
Reading pseudopotential information in formatted form from Li-gga.psf

Valence configuration for pseudopotential generation:
2s( 1.00) rc: 2.28
2p( 0.00) rc: 2.28
3d( 0.00) rc: 2.59
4f( 0.00) rc: 2.59
Ground state valence configuration:   2s02  2p02
Reading pseudopotential information in formatted form from C-gga.psf

Valence configuration for pseudopotential generation:
2s( 2.00) rc: 1.56
2p( 2.00) rc: 1.56
3d( 0.00) rc: 1.56
4f( 0.00) rc: 1.56
relmxkb: Read Max KB Ang. Momentum=    2 for species C-gga
relmxkb: Read Max KB Ang. Momentum=    2 for species Li-gga

<basis_specs>
Li-gga               Z=   3    Mass=  6.9400        Charge= 0.17977+309
Lmxo=0 Lmxkb= 2    BasisType=split      Semic=F
L=0  Nsemic=0  Cnfigmx=2
          i=1  nzeta=2  polorb=0  (2s)
            splnorm:   0.15000
               vcte:    0.0000
               rinn:    0.0000
               qcoe:    0.0000
               qyuk:    0.0000
               qwid:   0.10000E-01
                rcs:    0.0000      0.0000
            lambdas:    1.0000      1.0000
L=0  Nkbl=1  erefs: 0.17977+309
L=1  Nkbl=1  erefs: 0.17977+309
L=2  Nkbl=1  erefs: 0.17977+309
</basis_specs>

atom: Called for Li-gga                (Z =   3)

read_vps: Pseudopotential generation method:
read_vps: ATM 3.2.2 Troullier-Martins
Valence charge for ps generation:    1.00000

read_vps: Pseudopotential includes a core correction:
read_vps: Pseudo-core for xc-correction

xc_check: Exchange-correlation functional:
xc_check: GGA Perdew, Burke & Ernzerhof 1996
V l=0 = -2*Zval/r beyond r=  2.2278
V l=1 = -2*Zval/r beyond r=  2.2278
V l=2 = -2*Zval/r beyond r=  2.5245
All V_l potentials equal beyond r=  2.4622
This should be close to max(r_c) in ps generation
All pots = -2*Zval/r beyond r=  2.5245

VLOCAL1: 99.0% of the norm of Vloc inside      7.160 Ry
VLOCAL1: 99.9% of the norm of Vloc inside     16.318 Ry
atom: Maximum radius for 4*pi*r*r*local-pseudopot. charge    2.86079
atom: Maximum radius for r*vlocal+2*Zval:    2.43160
GHOST: No ghost state for L =  0
GHOST: No ghost state for L =  1
GHOST: No ghost state for L =  2

KBgen: Kleinman-Bylander projectors:
   l= 0   rc=  2.654023   el= -0.211234   Ekb=  1.742119   kbcos=  0.228463
   l= 1   rc=  2.721230   el= -0.080095   Ekb= -1.122375   kbcos= -0.147941
   l= 2   rc=  2.825246   el=  0.002001   Ekb= -0.207076   kbcos= -0.031965

KBgen: Total number of Kleinman-Bylander projectors:    9
atom: -------------------------------------------------------------------------

atom: SANKEY-TYPE ORBITALS:
atom: Selected multiple-zeta basis: split

SPLIT: Orbitals with angular momentum L= 0

SPLIT: Basis orbitals for state 2s

SPLIT: PAO cut-off radius determined from an
SPLIT: energy shift=  0.000735 Ry

   izeta = 1
                 lambda =    1.000000
                     rc =   11.897381
                 energy =   -0.210580
                kinetic =    0.143382
    potential(screened) =   -0.353962
       potential(ionic) =   -0.533453

   izeta = 2
                 rmatch =    8.489163
              splitnorm =    0.150000
                 energy =   -0.186081
                kinetic =    0.225882
    potential(screened) =   -0.411964
       potential(ionic) =   -0.593024
atom: Total number of Sankey-type orbitals:  2

atm_pop: Valence configuration (for local Pseudopot. screening):
 2s( 1.00)
Vna: chval, zval:    1.00000   1.00000

Vna:  Cut-off radius for the neutral-atom potential:  11.897381
comcore: Pseudo-core radius Rcore=  3.450946

atom: _________________________________________________________________________

<basis_specs>
C-gga                Z=   6    Mass=  12.010        Charge= 0.17977+309
Lmxo=1 Lmxkb= 2    BasisType=split      Semic=F
L=0  Nsemic=0  Cnfigmx=2
          i=1  nzeta=2  polorb=0  (2s)
            splnorm:   0.15000
               vcte:    0.0000
               rinn:    0.0000
               qcoe:    0.0000
               qyuk:    0.0000
               qwid:   0.10000E-01
                rcs:    0.0000      0.0000
            lambdas:    1.0000      1.0000
L=1  Nsemic=0  Cnfigmx=2
          i=1  nzeta=2  polorb=0  (2p)
            splnorm:   0.15000
               vcte:    0.0000
               rinn:    0.0000
               qcoe:    0.0000
               qyuk:    0.0000
               qwid:   0.10000E-01
                rcs:    0.0000      0.0000
            lambdas:    1.0000      1.0000
L=0  Nkbl=1  erefs: 0.17977+309
L=1  Nkbl=1  erefs: 0.17977+309
L=2  Nkbl=1  erefs: 0.17977+309
</basis_specs>

atom: Called for C-gga                 (Z =   6)

read_vps: Pseudopotential generation method:
read_vps: ATM 3.2.2 Troullier-Martins
Valence charge for ps generation:    4.00000

xc_check: Exchange-correlation functional:
xc_check: GGA Perdew, Burke & Ernzerhof 1996
V l=0 = -2*Zval/r beyond r=  1.5227
V l=1 = -2*Zval/r beyond r=  1.5227
V l=2 = -2*Zval/r beyond r=  1.5227
All V_l potentials equal beyond r=  1.4851
This should be close to max(r_c) in ps generation
All pots = -2*Zval/r beyond r=  1.5227

VLOCAL1: 99.0% of the norm of Vloc inside     19.682 Ry
VLOCAL1: 99.9% of the norm of Vloc inside     44.856 Ry
atom: Maximum radius for 4*pi*r*r*local-pseudopot. charge    1.79142
atom: Maximum radius for r*vlocal+2*Zval:    1.54183
GHOST: No ghost state for L =  0
GHOST: No ghost state for L =  1
GHOST: No ghost state for L =  2

KBgen: Kleinman-Bylander projectors:
   l= 0   rc=  1.661951   el= -1.010689   Ekb=  5.289847   kbcos=  0.316429
   l= 1   rc=  1.661951   el= -0.388490   Ekb= -4.102504   kbcos= -0.351025
   l= 2   rc=  1.747182   el=  0.001971   Ekb= -1.006005   kbcos= -0.008530

KBgen: Total number of Kleinman-Bylander projectors:    9
atom: -------------------------------------------------------------------------

atom: SANKEY-TYPE ORBITALS:
atom: Selected multiple-zeta basis: split

[...]

SPLIT: Basis orbitals for state 2s

[...]

   izeta = 2
                 rmatch =    3.518811
              splitnorm =    0.150000
                 energy =   -0.877891
                kinetic =    1.289227
    potential(screened) =   -2.167118
       potential(ionic) =   -5.982073

SPLIT: Orbitals with angular momentum L= 1

SPLIT: Basis orbitals for state 2p

SPLIT: PAO cut-off radius determined from an
SPLIT: energy shift=  0.000735 Ry

   izeta = 1
                 lambda =    1.000000
                     rc =    7.638387
                 energy =   -0.387843
                kinetic =    2.314739
    potential(screened) =   -2.702582
       potential(ionic) =   -6.092371

   izeta = 2
                 rmatch =    3.840617
              splitnorm =    0.150000
                 energy =   -0.270479
                kinetic =    3.438347
    potential(screened) =   -3.708826
       potential(ionic) =   -7.497707
atom: Total number of Sankey-type orbitals:  8

atm_pop: Valence configuration (for local Pseudopot. screening):
 2s( 2.00)
 2p( 2.00)
Vna: chval, zval:    4.00000   4.00000

Vna:  Cut-off radius for the neutral-atom potential:   7.638387

atom: _________________________________________________________________________

prinput: Basis input ----------------------------------------------------------

PAO.BasisType split

%block ChemicalSpeciesLabel
    1    3 Li-gga                  # Species index, atomic number, species label
    2    6 C-gga                   # Species index, atomic number, species label
%endblock ChemicalSpeciesLabel

%block PAO.Basis                 # Define Basis set
Li-gga                1                    # Species label, number of l-shells
 n=2   0   2                         # n, l, Nzeta
  11.897      8.489
   1.000      1.000
[...]

%block SCF.Mixer.Pulay
  # Mixing method
  method pulay
  variant stable

  # Mixing options
  weight 0.2500
  weight.linear 0.2500
  history 4
%endblock SCF.Mixer.Pulay

DM_history_depth set to one: no extrapolation allowed by default for geometry relaxation
Size of DM history Fstack: 1
Total number of electrons:    22.000000
Total ionic charge:    22.000000

* ProcessorY, Blocksize:    4   1

* Orbital distribution balance (max,min):     3     2

k-point displ. along   1 input, could be:     0.00    0.50
k-point displ. along   2 input, could be:     0.00    0.50
k-point displ. along   3 input, could be:     0.00    0.50
 Kpoints in:            8 . Kpoints trimmed:            8

siesta: k-grid: Number of k-points =     8
siesta: k-grid: Cutoff (effective) =     4.316 Ang
siesta: k-grid: Supercell and displacements
siesta: k-grid:    2   0   0      0.000
siesta: k-grid:    0   2   0      0.000
siesta: k-grid:    0   0   2      0.000

diag: Algorithm                                     = Expert
diag: Parallel over k                               =   T
diag: Use parallel 2D distribution                  =   T
diag: Parallel block-size                           = 1
diag: Parallel distribution                         =     4 x     4
diag: Used triangular part                          = Lower
diag: Absolute tolerance                            =  0.100E-15
diag: Orthogonalization factor                      =  0.100E-05

superc: Internal auxiliary supercell:     9 x     9 x     5  =     405
superc: Number of atoms, orbitals, and projectors:   7695  17820  69255

ts: **************************************************************
ts: Save H and S matrices                           =    F
ts: Save DM and EDM matrices                        =    F
ts: Only save the overlap matrix S                  =    F
ts: **************************************************************

************************ Begin: TS CHECKS AND WARNINGS ************************
************************ End: TS CHECKS AND WARNINGS **************************

                        Single-point calculation

outcoor: Atomic coordinates (Ang):
    0.00000000    0.00000000    0.00000000   2       1  C-gga
   -0.70288177    1.21742694    1.03596297   1       2  Li-gga
   -1.45518323    2.52045129    5.17980239   1       3  Li-gga
    1.45518323    2.52045129    1.03596297   1       4  Li-gga
    0.70288177    1.21742694    5.17980239   1       5  Li-gga
    1.40576354    0.00000000    1.03596297   1       6  Li-gga
    2.91036646    0.00000000    5.17980239   1       7  Li-gga
   -1.45518323    2.52045129    1.03596297   1       8  Li-gga
   -0.70288177    1.21742694    5.17980239   1       9  Li-gga
    0.70288177    1.21742694    1.03596297   1      10  Li-gga
    1.45518323    2.52045129    5.17980239   1      11  Li-gga
    2.91036646    0.00000000    1.03596297   1      12  Li-gga
    1.40576354    0.00000000    5.17980239   1      13  Li-gga
   -0.70288177    1.21742694    3.10788268   1      14  Li-gga
   -1.45518323    2.52045129    3.10788268   1      15  Li-gga
    1.45518323    2.52045129    3.10788268   1      16  Li-gga
    0.70288177    1.21742694    3.10788268   1      17  Li-gga
    1.40576354    0.00000000    3.10788268   1      18  Li-gga
    2.91036646    0.00000000    3.10788268   1      19  Li-gga

superc: Internal auxiliary supercell:     9 x     9 x     5  =     405
superc: Number of atoms, orbitals, and projectors:   7695  17820  69255

outcell: Unit cell vectors (Ang):
        4.316130    0.000000    0.000000
       -2.158065    3.737878    0.000000
        0.000000    0.000000    6.215765

outcell: Cell vector modules (Ang)   :    4.316130    4.316130    6.215765
outcell: Cell angles (23,13,12) (deg):     90.0000     90.0000    120.0000
outcell: Cell volume (Ang**3)        :    100.2800
<dSpData1D:S at geom step 0
  <sparsity:sparsity for geom step 0
    nrows_g=44 nrows=3 sparsity=6.0212 nnzs=11657, refcount: 7>
  <dData1D:(new from dSpData1D) n=11657, refcount: 1>
refcount: 1>
new_DM -- step:     1
Initializing Density Matrix...
DM filled with atomic data:
<dSpData2D:DM initialized from atoms
  <sparsity:sparsity for geom step 0
    nrows_g=44 nrows=3 sparsity=6.0212 nnzs=11657, refcount: 8>
  <dData2D:DM n=11657 m=1, refcount: 1>
refcount: 1>
No. of atoms with KB's overlaping orbs in proc 0. Max # of overlaps:     482     555
New grid distribution:   1
           1       1:   20    1:    5    1:    9
           2       1:   20    1:    5   10:   18
           3       1:   20    1:    5   19:   27
           4       1:   20    1:    5   28:   36
           5       1:   20    6:   10    1:    9
           6       1:   20    6:   10   10:   18
           7       1:   20    6:   10   19:   27
           8       1:   20    6:   10   28:   36
           9       1:   20   11:   15    1:    9
          10       1:   20   11:   15   10:   18
          11       1:   20   11:   15   19:   27
          12       1:   20   11:   15   28:   36
          13       1:   20   16:   20    1:    9
          14       1:   20   16:   20   10:   18
          15       1:   20   16:   20   19:   27
          16       1:   20   16:   20   28:   36

InitMesh: MESH =    40 x    40 x    72 =      115200
InitMesh: (bp) =    20 x    20 x    36 =       14400
InitMesh: Mesh cutoff (required, used) =   300.000   316.498 Ry
ExtMesh (bp) on 0 =   156 x   141 x   157 =     3453372
New grid distribution:   2
           1       1:   10   11:   20   19:   27
           2      11:   20    1:   10    1:    9
           3      11:   20    1:   10   19:   27
           4      11:   20   11:   20    1:    9
           5       1:   10   11:   20   28:   36
           6      11:   20    1:   10   10:   18
           7      11:   20   11:   20   10:   18
           8      11:   20    1:   10   28:   36
           9       1:   10    1:   10   19:   27
          10       1:   10    1:   10    1:    9
          11      11:   20   11:   20   19:   27
          12       1:   10   11:   20    1:    9
          13       1:   10    1:   10   28:   36
          14       1:   10    1:   10   10:   18
          15       1:   10   11:   20   10:   18
          16      11:   20   11:   20   28:   36
New grid distribution:   3
           1       1:   10   11:   20   19:   27
           2      11:   20    1:   10    1:    9
           3      11:   20    1:   10   19:   27
           4      11:   20   11:   20    1:    9
           5       1:   10   11:   20   28:   36
           6      11:   20    1:   10   10:   18
           7      11:   20   11:   20   10:   18
           8      11:   20    1:   10   28:   36
           9       1:   10    1:   10   19:   27
          10       1:   10    1:   10    1:    9
          11      11:   20   11:   20   19:   27
          12       1:   10   11:   20    1:    9
          13       1:   10    1:   10   28:   36
          14       1:   10    1:   10   10:   18
          15       1:   10   11:   20   10:   18
          16      11:   20   11:   20   28:   36
Setting up quadratic distribution...
ExtMesh (bp) on 0 =   146 x   146 x   157 =     3346612
PhiOnMesh: Number of (b)points on node 0 =                  900
PhiOnMesh: nlist on node 0 =               249591

stepf: Fermi-Dirac step function

siesta: Program's energy decomposition (eV):
siesta: Ebs     =      -373.718057
siesta: Eions   =       439.895300
siesta: Ena     =        90.153131
siesta: Ekin    =       380.867055
siesta: Enl     =        23.804671
siesta: Eso     =         0.000000
siesta: Edftu   =         0.000000
siesta: DEna    =       -46.682251
siesta: DUscf   =        35.745919
siesta: DUext   =         0.000000
siesta: Exc     =      -257.580219
siesta: eta*DQ  =         0.000000
siesta: Emadel  =         0.000000
siesta: Emeta   =         0.000000
siesta: Emolmec =       -15.358789
siesta: Ekinion =         0.000000
siesta: Eharris =      -151.982304
siesta: Etot    =      -228.945785
siesta: FreeEng =      -228.959879

SCF Convergence by FreeE+DM+H criterion
|FreeE_i-FreeE_(i-1)| (eV) <     0.00100000
max |DM_out - DM_in|         :     0.0006046710
max |H_out - H_in|      (eV) :     0.0000035545
SCF cycle converged after 13 iterations

Using DM_out to compute the final energy and forces
No. of atoms with KB's overlaping orbs in proc 0. Max # of overlaps:     482     555

MM-Stress (kbar):       88.67       88.67      549.60       -0.00       -0.00       -0.00

siesta: E_KS(eV) =             -245.7179

siesta: E_KS - E_eggbox =      -245.7179

siesta: Atomic forces (eV/Ang):
     1   -0.000000    0.000000   -0.000000
     2   -0.950560    1.646436    1.324378
     3    0.950560   -1.646436   -1.324377
     4   -0.950513   -1.646337    1.324292
     5    0.950513    1.646337   -1.324292
     6    1.901135    0.000009    1.324377
     7   -1.901135   -0.000009   -1.324377
     8    0.950560   -1.646436    1.324377
     9   -0.950560    1.646436   -1.324378
    10    0.950513    1.646337    1.324292
    11   -0.950513   -1.646337   -1.324292
    12   -1.901135   -0.000009    1.324377
    13    1.901135    0.000009   -1.324377
    14   -0.493215    0.854209   -0.000000
    15    0.493215   -0.854209   -0.000000
    16   -0.493219   -0.854280   -0.000000
    17    0.493219    0.854280    0.000000
    18    0.986374   -0.000032   -0.000000
    19   -0.986374    0.000032   -0.000000
   Tot   -0.000000    0.000000   -0.000000
   Max    1.901135
   Res    1.110198    sqrt( Sum f_i^2 / 3N )
   Max    1.901135    constrained

Stress tensor Voigt[x,y,z,yz,xz,xy] (kbar):    -2721.50    -2721.52     -496.95        0.00        0.00       -0.02
(Free)E + p*V (eV/cell)     -121.7943
Target enthalpy (eV/cell)     -245.7203

siesta: Eigenvalues (eV):
  ik is       eps
   1  1  -29.3252  -24.2538  -24.1927  -22.7666  -20.7020  -20.5716  -20.5714  -13.8513  -13.8513  -13.1820
         -13.1819  -11.2547  -11.2547  -11.1324  -11.1324  -10.7581  -10.7581   -7.8287   -4.9890   -2.4223
   -0.4960   -0.4955    0.1459   11.6725   11.6725   12.2061   12.2062   12.4196   12.4837   12.4838
   12.6170   12.6170   13.5098   16.3063   16.6630   26.9072   27.1419   27.8096   27.8097   62.0570
   62.0571   62.3017  104.9587  104.9588
   2  1  -28.7954  -23.3795  -22.7912  -22.4304  -22.3277  -22.2476  -21.2827  -21.0581  -20.3530  -17.8886
         -16.7402  -16.4276  -14.5270   -8.8328   -7.3968   -2.0998    4.9833    7.0224    8.4605    8.6513
   10.5895   11.0421   11.4695   12.3157   12.4049   12.5280   12.8462   13.6303   13.9651   14.0365
   14.6837   15.3553   20.9704   22.5787   22.6630   27.6169   27.7293   28.6455   39.5811   39.7383
   40.3624   40.8552   51.2456   64.8979
   3  1  -28.7954  -23.3795  -22.7912  -22.4304  -22.3277  -22.2476  -21.2827  -21.0581  -20.3530  -17.8886
         -16.7402  -16.4276  -14.5270   -8.8328   -7.3968   -2.0998    4.9833    7.0224    8.4605    8.6513
   10.5895   11.0421   11.4695   12.3157   12.4049   12.5280   12.8462   13.6303   13.9651   14.0365
   14.6837   15.3553   20.9704   22.5787   22.6630   27.6169   27.7293   28.6455   39.5811   39.7383
   40.3624   40.8552   51.2456   64.8979
   4  1  -28.7954  -23.3795  -22.7912  -22.4304  -22.3277  -22.2476  -21.2827  -21.0583  -20.3530  -17.8886
         -16.7399  -16.4276  -14.5270   -8.8328   -7.3973   -2.0998    4.9836    7.0224    8.4605    8.6514
   10.5895   11.0421   11.4695   12.3157   12.4049   12.5280   12.8462   13.6303   13.9651   14.0365
   14.6837   15.3553   20.9704   22.5787   22.6629   27.6170   27.7293   28.6454   39.5811   39.7383
   40.3624   40.8552   51.2457   64.8977
   5  1  -29.3593  -24.1111  -23.6910  -22.0830  -20.5095  -20.5093  -14.4531  -13.6318  -13.6318  -13.6162
         -13.6162  -13.3374  -13.3374   -5.6269   -4.8280   -4.8274   -4.1207    1.9664    1.9664    2.6472
    2.6472   12.2379   12.2380   13.1537   13.3942   14.7748   14.8334   20.8637   26.5827   26.5827
   26.6034   26.6034   26.6045   27.0486   27.0487   48.8656   48.8657   53.1014   53.1017   53.2755
   53.2755   60.4807   60.7144  206.5171
   6  1  -28.5215  -22.7980  -22.5675  -21.9632  -21.9153  -21.5949  -20.6761  -20.4885  -18.5900  -17.2143
         -16.3941  -13.3394  -13.1330  -10.7048   -6.3280   -2.1593   -1.9812   -1.0617    1.7612   11.7350
   11.9439   12.0854   14.2214   14.5258   14.7198   14.8004   15.6273   17.6216   18.8416   20.2643
   23.2326   26.8820   27.3478   28.7060   29.3867   31.5327   38.8337   39.6114   41.4847   41.7685
   49.2974   70.4188  174.9416  187.9216
   7  1  -28.5215  -22.7980  -22.5675  -21.9632  -21.9153  -21.5949  -20.6761  -20.4885  -18.5900  -17.2143
         -16.3941  -13.3394  -13.1330  -10.7048   -6.3280   -2.1593   -1.9812   -1.0617    1.7612   11.7350
   11.9439   12.0854   14.2214   14.5258   14.7198   14.8004   15.6273   17.6216   18.8416   20.2643
   23.2326   26.8820   27.3478   28.7060   29.3867   31.5327   38.8337   39.6114   41.4847   41.7685
   49.2974   70.4188  174.9416  187.9216
   8  1  -28.5215  -22.7980  -22.5675  -21.9632  -21.9153  -21.5949  -20.6760  -20.4886  -18.5900  -17.2143
         -16.3941  -13.3395  -13.1330  -10.7047   -6.3276   -2.1593   -1.9812   -1.0617    1.7608   11.7350
   11.9439   12.0854   14.2214   14.5258   14.7198   14.8004   15.6273   17.6216   18.8416   20.2642
   23.2326   26.8819   27.3478   28.7059   29.3867   31.5327   38.8337   39.6113   41.4847   41.7685
   49.2972   70.4188  174.9418  187.9217
siesta: Fermi energy =     -13.747297 eV

siesta: Program's energy decomposition (eV):
siesta: Ebs     =      -463.427804
siesta: Eions   =       439.895300
siesta: Ena     =        90.153131
siesta: Ekin    =       315.613529
siesta: Enl     =        47.688917
siesta: Eso     =         0.000000
siesta: Edftu   =         0.000000
siesta: DEna    =        -6.739576
siesta: DUscf   =         7.524498
siesta: DUext   =         0.000000
siesta: Exc     =      -244.704309
siesta: eta*DQ  =         0.000000
siesta: Emadel  =         0.000000
siesta: Emeta   =         0.000000
siesta: Emolmec =       -15.358789
siesta: Ekinion =         0.000000
siesta: Eharris =      -245.717900
siesta: Etot    =      -245.717900
siesta: FreeEng =      -245.720337

siesta: Final energy (eV):
siesta:  Band Struct. =    -463.427804
siesta:       Kinetic =     315.613529
siesta:       Hartree =      98.581548
siesta:       Edftu   =       0.000000
siesta:       Eso     =       0.000000
siesta:    Ext. field =       0.000000
siesta:   Exch.-corr. =    -244.704309
siesta:  Ion-electron =    -719.907487
siesta:       Ion-ion =     320.057608
siesta:       Ekinion =       0.000000
siesta:         Total =    -245.717900
siesta:         Fermi =     -13.747297

siesta: Atomic forces (eV/Ang):
siesta:      1   -0.000000    0.000000   -0.000000
siesta:      2   -0.950560    1.646436    1.324378
siesta:      3    0.950560   -1.646436   -1.324377
siesta:      4   -0.950513   -1.646337    1.324292
siesta:      5    0.950513    1.646337   -1.324292
siesta:      6    1.901135    0.000009    1.324377
siesta:      7   -1.901135   -0.000009   -1.324377
siesta:      8    0.950560   -1.646436    1.324377
siesta:      9   -0.950560    1.646436   -1.324378
siesta:     10    0.950513    1.646337    1.324292
siesta:     11   -0.950513   -1.646337   -1.324292
siesta:     12   -1.901135   -0.000009    1.324377
siesta:     13    1.901135    0.000009   -1.324377
siesta:     14   -0.493215    0.854209   -0.000000
siesta:     15    0.493215   -0.854209   -0.000000
siesta:     16   -0.493219   -0.854280   -0.000000
siesta:     17    0.493219    0.854280    0.000000
siesta:     18    0.986374   -0.000032   -0.000000
siesta:     19   -0.986374    0.000032   -0.000000
siesta: ----------------------------------------
siesta:    Tot   -0.000000    0.000000   -0.000000

siesta: Stress tensor (static) (eV/Ang**3):
siesta:    -1.698609   -0.000012    0.000000
siesta:    -0.000012   -1.698623    0.000000
siesta:     0.000000    0.000000   -0.310170

siesta: Cell volume =        100.279989 Ang**3

siesta: Pressure (static):
siesta:                Solid            Molecule  Units
siesta:           0.01345945          0.01543403  Ry/Bohr**3
siesta:           1.23580066          1.41710014  eV/Ang**3
siesta:        1979.99233685       2270.46927772  kBar
(Free)E+ p_basis*V_orbitals  =        -213.114527
(Free)Eharris+ p_basis*V_orbitals  =        -213.114527

cite: Please see "LiC18_scf.bib" for an exhaustive BiBTeX file.
cite: Please clearly indicate Siesta version in published work: 4.1.5
cite: This calculation has made use of the following articles
cite: which are encouraged to be cited in a published work.
        Primary SIESTA paper
          DOI: www.doi.org/10.1088/0953-8984/14/11/302

>> End of run:   9-NOV-2022   8:05:57
Job completed