>> Start of run:   9-NOV-2022   8:05:56

reinit: Reading from standard input
reinit: Dumped input in INPUT_TMP.23018
************************** Dump of input data file ****************************
SystemName LiC12_scf
SystemLabel LiC12_scf
NumberOfAtoms   13
NumberOfSpecies 2
%block ChemicalSpeciesLabel
1  3   Li-gga
2  6   C-gga
%endblock ChemicalSpeciesLabel
PAO.BasisSize  DZP
PAO.EnergyShift  10 meV
%block PS.Lmax
C-gga   2
Li-gga  2
%endblock PS.Lmax
LatticeConstant 1.000000 Ang
%block LatticeVectors
	4.2686000000	0.0000000000	0.0000000000
	-2.1343000000	3.6967160386	0.0000000000
	0.0000000000	0.0000000000	10.3938920000
%endblock LatticeVectors
AtomicCoordinatesFormat Ang
%block AtomicCoordinatesAndAtomicSpecies
	0.00000000	0.00000000	0.00000000	2
	1.42144380	0.00000000	2.59847300	1
	2.84715620	0.00000000	7.79541900	1
	-0.71072190	1.23100644	2.59847300	1
	-1.42357810	2.46570960	7.79541900	1
	1.42357810	2.46570960	2.59847300	1
	0.71072190	1.23100644	7.79541900	1
	2.84715620	0.00000000	2.59847300	1
	1.42144380	0.00000000	7.79541900	1
	-1.42357810	2.46570960	2.59847300	1
	-0.71072190	1.23100644	7.79541900	1
	0.71072190	1.23100644	2.59847300	1
	1.42357810	2.46570960	7.79541900	1
%endblock AtomicCoordinatesAndAtomicSpecies
Kgrid_NoTRS  T
%block kgrid_MonkhorstPack
4       0       0       0.0
0       4       0       0.0
0       0       4       0.0
%endblock kgrid_MonkhorstPack
AtomCoorFormatOut Ang
BlockSize 1
#ProcessorY 12
Diag.ParallelOverK   T
Diag.DivideAndConquer F
MeshCutoff   300 Ry
SCF.FreeE.Tolerance 1E-3 eV
SCF.EDM.Tolerance   5E-3 eV
DM.Tolerance  1E-3
DM.Require.Energy.Convergence T
DM.NumberPulay 4
XC.Functional GGA
XC.Authors    PBE
UseSaveData        F
MD.TypeOfRun       CG
MD.VariableCell    F
MD.NumCGsteps      00
MD.MaxCGDispl      0.200000 Bohr
MD.MaxStressTol    1.000000 GPa
MD.MaxForceTol     0.010000 eV/Ang
WriteMDHistory T
WriteCoorStep T
WriteForces T
WriteCoorStep    T
WriteEigenValues T
WriteDM    F
MM.UnitsDistance Ang  # what this program prints out DO NOT CHANGE
MM.UnitsEnergy    eV  # what this program prints out DO NOT CHANGE
MM.Grimme.S6     0.75 # Grimme-paper for PBE (correct for your functional)
MM.Grimme.D     20.   # Grimme-paper (correct for your functional)
%block MM.Potentials
  1   1 Grimme     16.69      1.650 # Li, 10.1002/jcc.20495
  1   2 Grimme     17.40      2.277 # Li / C
  2   2 Grimme     18.14      2.904 # C, 10.1002/jcc.20495
%endblock MM.Potentials
#%block ProjectedDensityOfStates
# -200.0  120.0  0.4  12800  eV
#%endblock ProjectedDensityOfStates
************************** End of input data file *****************************

reinit: -----------------------------------------------------------------------
reinit: System Name: LiC12_scf
reinit: -----------------------------------------------------------------------
reinit: System Label: LiC12_scf
reinit: -----------------------------------------------------------------------
Reading two-body potentials
Grimme - two-body potential between 1 and 1
Grimme - two-body potential between 1 and 2
Grimme - two-body potential between 2 and 2

initatom: Reading input for the pseudopotentials and atomic orbitals ----------
Species number:   1 Atomic number:    3 Label: Li-gga
Species number:   2 Atomic number:    6 Label: C-gga

Ground state valence configuration:   2s01
Reading pseudopotential information in formatted form from Li-gga.psf

Valence configuration for pseudopotential generation:
2s( 1.00) rc: 2.28
2p( 0.00) rc: 2.28
3d( 0.00) rc: 2.59
4f( 0.00) rc: 2.59
Ground state valence configuration:   2s02  2p02
Reading pseudopotential information in formatted form from C-gga.psf

Valence configuration for pseudopotential generation:
2s( 2.00) rc: 1.56
2p( 2.00) rc: 1.56
3d( 0.00) rc: 1.56
4f( 0.00) rc: 1.56
relmxkb: Read Max KB Ang. Momentum=    2 for species C-gga
relmxkb: Read Max KB Ang. Momentum=    2 for species Li-gga

<basis_specs>
Li-gga               Z=   3    Mass=  6.9400        Charge= 0.17977+309
Lmxo=0 Lmxkb= 2    BasisType=split      Semic=F
L=0  Nsemic=0  Cnfigmx=2
          i=1  nzeta=2  polorb=1  (2s)
            splnorm:   0.15000
               vcte:    0.0000
               rinn:    0.0000
               qcoe:    0.0000
               qyuk:    0.0000
               qwid:   0.10000E-01
                rcs:    0.0000      0.0000
            lambdas:    1.0000      1.0000
L=0  Nkbl=1  erefs: 0.17977+309
L=1  Nkbl=1  erefs: 0.17977+309
L=2  Nkbl=1  erefs: 0.17977+309
</basis_specs>

atom: Called for Li-gga                (Z =   3)

read_vps: Pseudopotential generation method:
read_vps: ATM 3.2.2 Troullier-Martins
Valence charge for ps generation:    1.00000

read_vps: Pseudopotential includes a core correction:
read_vps: Pseudo-core for xc-correction

xc_check: Exchange-correlation functional:
xc_check: GGA Perdew, Burke & Ernzerhof 1996
V l=0 = -2*Zval/r beyond r=  2.2278
V l=1 = -2*Zval/r beyond r=  2.2278
V l=2 = -2*Zval/r beyond r=  2.5245
All V_l potentials equal beyond r=  2.4622
This should be close to max(r_c) in ps generation
All pots = -2*Zval/r beyond r=  2.5245

VLOCAL1: 99.0% of the norm of Vloc inside      7.160 Ry
VLOCAL1: 99.9% of the norm of Vloc inside     16.318 Ry
atom: Maximum radius for 4*pi*r*r*local-pseudopot. charge    2.86079
atom: Maximum radius for r*vlocal+2*Zval:    2.43160
GHOST: No ghost state for L =  0
GHOST: No ghost state for L =  1
GHOST: No ghost state for L =  2

KBgen: Kleinman-Bylander projectors:
   l= 0   rc=  2.654023   el= -0.211234   Ekb=  1.742119   kbcos=  0.228463
   l= 1   rc=  2.721230   el= -0.080095   Ekb= -1.122375   kbcos= -0.147941
   l= 2   rc=  2.825246   el=  0.002001   Ekb= -0.207076   kbcos= -0.031965

KBgen: Total number of Kleinman-Bylander projectors:    9
atom: -------------------------------------------------------------------------

atom: SANKEY-TYPE ORBITALS:
atom: Selected multiple-zeta basis: split

SPLIT: Orbitals with angular momentum L= 0

SPLIT: Basis orbitals for state 2s

SPLIT: PAO cut-off radius determined from an
SPLIT: energy shift=  0.000735 Ry

   izeta = 1
                 lambda =    1.000000
                     rc =   11.897381
                 energy =   -0.210580
                kinetic =    0.143382
    potential(screened) =   -0.353962
       potential(ionic) =   -0.533453

   izeta = 2
                 rmatch =    8.489163
              splitnorm =    0.150000
                 energy =   -0.186081
                kinetic =    0.225882
    potential(screened) =   -0.411964
       potential(ionic) =   -0.593024

POLgen: Perturbative polarization orbital with L=  1

POLgen: Polarization orbital for state 2s

   izeta = 1
                     rc =   11.897381
                 energy =   -0.027011
                kinetic =    0.282985
    potential(screened) =   -0.309997
       potential(ionic) =   -0.490997
atom: Total number of Sankey-type orbitals:  5

atm_pop: Valence configuration (for local Pseudopot. screening):
 2s( 1.00)
Vna: chval, zval:    1.00000   1.00000

Vna:  Cut-off radius for the neutral-atom potential:  11.897381
comcore: Pseudo-core radius Rcore=  3.450946

atom: _________________________________________________________________________

<basis_specs>
C-gga                Z=   6    Mass=  12.010        Charge= 0.17977+309
Lmxo=1 Lmxkb= 2    BasisType=split      Semic=F
L=0  Nsemic=0  Cnfigmx=2
          i=1  nzeta=2  polorb=0  (2s)
            splnorm:   0.15000
               vcte:    0.0000
               rinn:    0.0000
               qcoe:    0.0000
               qyuk:    0.0000
               qwid:   0.10000E-01
                rcs:    0.0000      0.0000
            lambdas:    1.0000      1.0000
L=1  Nsemic=0  Cnfigmx=2
          i=1  nzeta=2  polorb=1  (2p)
            splnorm:   0.15000
               vcte:    0.0000
               rinn:    0.0000
               qcoe:    0.0000
               qyuk:    0.0000
               qwid:   0.10000E-01
                rcs:    0.0000      0.0000
            lambdas:    1.0000      1.0000
L=0  Nkbl=1  erefs: 0.17977+309
L=1  Nkbl=1  erefs: 0.17977+309
L=2  Nkbl=1  erefs: 0.17977+309
</basis_specs>

atom: Called for C-gga                 (Z =   6)

read_vps: Pseudopotential generation method:
read_vps: ATM 3.2.2 Troullier-Martins
Valence charge for ps generation:    4.00000

xc_check: Exchange-correlation functional:
xc_check: GGA Perdew, Burke & Ernzerhof 1996
V l=0 = -2*Zval/r beyond r=  1.5227
V l=1 = -2*Zval/r beyond r=  1.5227
V l=2 = -2*Zval/r beyond r=  1.5227
All V_l potentials equal beyond r=  1.4851
This should be close to max(r_c) in ps generation
All pots = -2*Zval/r beyond r=  1.5227

VLOCAL1: 99.0% of the norm of Vloc inside     19.682 Ry
VLOCAL1: 99.9% of the norm of Vloc inside     44.856 Ry
atom: Maximum radius for 4*pi*r*r*local-pseudopot. charge    1.79142
atom: Maximum radius for r*vlocal+2*Zval:    1.54183
GHOST: No ghost state for L =  0
GHOST: No ghost state for L =  1
GHOST: No ghost state for L =  2

KBgen: Kleinman-Bylander projectors:
   l= 0   rc=  1.661951   el= -1.010689   Ekb=  5.289847   kbcos=  0.316429
   l= 1   rc=  1.661951   el= -0.388490   Ekb= -4.102504   kbcos= -0.351025
   l= 2   rc=  1.747182   el=  0.001971   Ekb= -1.006005   kbcos= -0.008530

KBgen: Total number of Kleinman-Bylander projectors:    9
atom: -------------------------------------------------------------------------

atom: SANKEY-TYPE ORBITALS:
atom: Selected multiple-zeta basis: split

[...]

SPLIT: Basis orbitals for state 2s

[...]

SPLIT: Orbitals with angular momentum L= 1

SPLIT: Basis orbitals for state 2p

SPLIT: PAO cut-off radius determined from an
SPLIT: energy shift=  0.000735 Ry

   izeta = 1
                 lambda =    1.000000
                     rc =    7.638387
                 energy =   -0.387843
                kinetic =    2.314739
    potential(screened) =   -2.702582
       potential(ionic) =   -6.092371

   izeta = 2
                 rmatch =    3.840617
              splitnorm =    0.150000
                 energy =   -0.270479
                kinetic =    3.438347
    potential(screened) =   -3.708826
       potential(ionic) =   -7.497707

POLgen: Perturbative polarization orbital with L=  2

POLgen: Polarization orbital for state 2p

   izeta = 1
                     rc =    7.638387
                 energy =    0.921402
                kinetic =    1.955040
    potential(screened) =   -1.033637
       potential(ionic) =   -3.679558
atom: Total number of Sankey-type orbitals: 13

atm_pop: Valence configuration (for local Pseudopot. screening):
 2s( 2.00)
 2p( 2.00)
Vna: chval, zval:    4.00000   4.00000

Vna:  Cut-off radius for the neutral-atom potential:   7.638387

atom: _________________________________________________________________________

prinput: Basis input ----------------------------------------------------------

PAO.BasisType split

%block ChemicalSpeciesLabel
    1    3 Li-gga                  # Species index, atomic number, species label
    2    6 C-gga                   # Species index, atomic number, species label
%endblock ChemicalSpeciesLabel

%block PAO.Basis                 # Define Basis set
[...]

************************ Begin: TS CHECKS AND WARNINGS ************************
************************ End: TS CHECKS AND WARNINGS **************************

                        Single-point calculation

outcoor: Atomic coordinates (Ang):
    0.00000000    0.00000000    0.00000000   2       1  C-gga
    1.42144380    0.00000000    2.59847300   1       2  Li-gga
    2.84715620    0.00000000    7.79541900   1       3  Li-gga
   -0.71072190    1.23100644    2.59847300   1       4  Li-gga
   -1.42357810    2.46570960    7.79541900   1       5  Li-gga
    1.42357810    2.46570960    2.59847300   1       6  Li-gga
    0.71072190    1.23100644    7.79541900   1       7  Li-gga
    2.84715620    0.00000000    2.59847300   1       8  Li-gga
    1.42144380    0.00000000    7.79541900   1       9  Li-gga
   -1.42357810    2.46570960    2.59847300   1      10  Li-gga
   -0.71072190    1.23100644    7.79541900   1      11  Li-gga
    0.71072190    1.23100644    2.59847300   1      12  Li-gga
    1.42357810    2.46570960    7.79541900   1      13  Li-gga

superc: Internal auxiliary supercell:     9 x     9 x     3  =     243
superc: Number of atoms, orbitals, and projectors:   3159  17739  28431

outcell: Unit cell vectors (Ang):
        4.268600    0.000000    0.000000
       -2.134300    3.696716    0.000000
        0.000000    0.000000   10.393892

outcell: Cell vector modules (Ang)   :    4.268600    4.268600   10.393892
outcell: Cell angles (23,13,12) (deg):     90.0000     90.0000    120.0000
outcell: Cell volume (Ang**3)        :    164.0136
<dSpData1D:S at geom step 0
  <sparsity:sparsity for geom step 0
    nrows_g=73 nrows=7 sparsity=5.3119 nnzs=28307, refcount: 7>
  <dData1D:(new from dSpData1D) n=28307, refcount: 1>
refcount: 1>
new_DM -- step:     1
Initializing Density Matrix...
DM filled with atomic data:
<dSpData2D:DM initialized from atoms
  <sparsity:sparsity for geom step 0
    nrows_g=73 nrows=7 sparsity=5.3119 nnzs=28307, refcount: 8>
  <dData2D:DM n=28307 m=1, refcount: 1>
refcount: 1>
No. of atoms with KB's overlaping orbs in proc 0. Max # of overlaps:     293     718
New grid distribution:   1
           1       1:   20    1:    7    1:   15
           2       1:   20    1:    7   16:   30
           3       1:   20    1:    7   31:   45
           4       1:   20    1:    7   46:   60
           5       1:   20    8:   14    1:   15
           6       1:   20    8:   14   16:   30
           7       1:   20    8:   14   31:   45
           8       1:   20    8:   14   46:   60
           9       1:   20   15:   20    1:   15
          10       1:   20   15:   20   16:   30
          11       1:   20   15:   20   31:   45
          12       1:   20   15:   20   46:   60

InitMesh: MESH =    40 x    40 x   120 =      192000
InitMesh: (bp) =    20 x    20 x    60 =       24000
InitMesh: Mesh cutoff (required, used) =   300.000   323.586 Ry
ExtMesh (bp) on 0 =   160 x   147 x   163 =     3833760
New grid distribution:   2
           1       1:   10    8:   20   31:   46
           2       1:   20    1:    7   15:   30
           3       1:   10    8:   20    1:   14
           4       1:   20    1:    7   47:   60
           5       1:   20    1:    7   31:   46
           6      11:   20    8:   20   15:   30
           7       1:   20    1:    7    1:   14
           8      11:   20    8:   20   47:   60
           9      11:   20    8:   20    1:   14
          10       1:   10    8:   20   15:   30
          11      11:   20    8:   20   31:   46
          12       1:   10    8:   20   47:   60
New grid distribution:   3
           1       1:   20    1:    7    1:   15
           2       1:   10    8:   20   16:   30
           3       1:   20    1:    7   31:   45
           4      11:   20    8:   20    1:   15
           5       1:   20    1:    7   16:   30
           6       1:   10    8:   20    1:   15
           7      11:   20    8:   20   31:   45
           8      11:   20    8:   20   46:   60
           9       1:   20    1:    7   46:   60
          10      11:   20    8:   20   16:   30
          11       1:   10    8:   20   31:   45
          12       1:   10    8:   20   46:   60
Setting up quadratic distribution...
ExtMesh (bp) on 0 =   150 x   153 x   164 =     3763800
PhiOnMesh: Number of (b)points on node 0 =                 2080
PhiOnMesh: nlist on node 0 =               733443

stepf: Fermi-Dirac step function

siesta: Program's energy decomposition (eV):
siesta: Ebs     =      -211.506007
siesta: Eions   =       380.620085
siesta: Ena     =       125.883538
siesta: Ekin    =       133.002445
siesta: Enl     =        45.323102
siesta: Eso     =         0.000000
siesta: Edftu   =         0.000000
siesta: DEna    =         0.782436
siesta: DUscf   =        32.063126
siesta: DUext   =         0.000000
siesta: Exc     =      -146.602616
siesta: eta*DQ  =         0.000000
siesta: Emadel  =         0.000000
siesta: Emeta   =         0.000000
siesta: Emolmec =        -4.868533
siesta: Ekinion =         0.000000
siesta: Eharris =      -149.872307
siesta: Etot    =      -195.036587
siesta: FreeEng =      -195.043750

SCF Convergence by FreeE+DM+H criterion
|FreeE_i-FreeE_(i-1)| (eV) <     0.00100000
max |DM_out - DM_in|         :     0.0003049725
max |H_out - H_in|      (eV) :     0.0002451169
SCF cycle converged after 21 iterations

Using DM_out to compute the final energy and forces
No. of atoms with KB's overlaping orbs in proc 0. Max # of overlaps:     293     718

MM-Stress (kbar):        4.91        4.91       17.70       -0.00        0.00        0.00

siesta: E_KS(eV) =             -214.4902

siesta: E_KS - E_eggbox =      -214.4902

siesta: Atomic forces (eV/Ang):
     1   -0.000000   -0.000000   -0.000000
     2   -0.315692   -0.000014   -0.363781
     3    0.315692    0.000014    0.363781
     4    0.157834   -0.273405   -0.363781
     5   -0.157833    0.273404    0.363781
     6    0.157822    0.273356   -0.363826
     7   -0.157822   -0.273355    0.363826
     8    0.315692    0.000014   -0.363781
     9   -0.315692   -0.000014    0.363781
    10   -0.157834    0.273405   -0.363781
    11    0.157833   -0.273404    0.363781
    12   -0.157822   -0.273356   -0.363826
    13    0.157822    0.273355    0.363826
   Tot    0.000000   -0.000000   -0.000000
   Max    0.363826
   Res    0.267178    sqrt( Sum f_i^2 / 3N )
   Max    0.363826    constrained

Stress tensor Voigt[x,y,z,yz,xz,xy] (kbar):     -779.44     -779.45      186.11       -0.00        0.00       -0.00
(Free)E + p*V (eV/cell)     -167.6765
Target enthalpy (eV/cell)     -214.5195

siesta: Eigenvalues (eV):
  ik is       eps
   1  1  -18.8940  -12.8775  -12.1807  -11.3392  -11.1874  -11.1863  -10.8399  -10.4898  -10.0622   -9.8059
          -8.1142   -7.7831   -6.3039   -6.1467   -6.1226   -4.9363   -3.0372   -2.9351   -2.8252   -2.7200
   -1.9669    1.0418    2.2016    2.4682    2.6747    2.7756    3.0857    3.4615    3.6436    4.1987
    4.8200    6.2330    6.7774    7.9891    8.7599    8.8833    9.7730   10.1561   10.7065   13.0820
   14.9264   15.2302   18.4639   20.0078   20.5386   20.7474   21.1034   23.0977   23.6438   24.0728
   24.7241   25.6387   26.6108   27.0536   27.5897   28.7591   34.5381   37.2480   38.3405   41.5067
   44.5860   45.1667   47.9083   48.1390   48.5371   48.6192   55.0283   57.9593   66.8397   67.1085
   68.8217   70.8822   71.1501
   2  1  -19.0139  -13.2423  -12.3574  -11.3399  -11.3032  -10.7973  -10.4670  -10.4165  -10.2734  -10.1392
          -8.9655   -7.6726   -4.9562   -4.4364   -3.9253   -3.9249   -3.2515   -2.8510   -2.7764   -2.5958
   -2.1359   -0.9977   -0.7227   -0.7052   -0.5630   -0.1756   -0.0813    3.7547    3.9729    4.4311
    5.4029    6.8124    7.9096   11.7428   11.9098   12.4308   12.8076   12.8791   13.1012   13.8913
   15.1945   15.3144   15.6069   17.9300   20.2679   20.3164   21.7956   22.6946   23.3849   23.7125
   25.4613   25.5745   27.0124   28.1172   28.2701   29.3518   30.3523   33.5102   34.9119   36.3401
   46.1405   47.4543   49.6941   49.7627   50.2602   51.0420   54.1846   61.9595   64.2562   66.9920
   67.8532   77.3075   83.7715
   3  1  -19.0139  -13.2423  -12.3574  -11.3399  -11.3032  -10.7973  -10.4670  -10.4165  -10.2734  -10.1393
          -8.9655   -7.6726   -4.9562   -4.4364   -3.9253   -3.9249   -3.2514   -2.8510   -2.7764   -2.5958
   -2.1359   -0.9978   -0.7227   -0.7053   -0.5630   -0.1756   -0.0813    3.7548    3.9728    4.4311
    5.4029    6.8124    7.9095   11.7428   11.9098   12.4308   12.8076   12.8791   13.1012   13.8913
   15.1944   15.3143   15.6069   17.9299   20.2679   20.3166   21.7956   22.6946   23.3849   23.7125
   25.4612   25.5745   27.0124   28.1172   28.2701   29.3518   30.3522   33.5102   34.9118   36.3401
   46.1405   47.4543   49.6941   49.7626   50.2602   51.0420   54.1845   61.9595   64.2562   66.9920
   67.8532   77.3075   83.7715
   4  1  -18.8940  -12.8775  -12.1807  -11.3392  -11.1874  -11.1863  -10.8399  -10.4897  -10.0622   -9.8059
          -8.1142   -7.7831   -6.3039   -6.1467   -6.1225   -4.9363   -3.0372   -2.9351   -2.8252   -2.7200
   -1.9669    1.0418    2.2016    2.4682    2.6747    2.7756    3.0857    3.4615    3.6436    4.1987
    4.8199    6.2329    6.7774    7.9891    8.7599    8.8833    9.7730   10.1561   10.7065   13.0819
   14.9265   15.2302   18.4638   20.0078   20.5386   20.7474   21.1034   23.0977   23.6438   24.0728
   24.7242   25.6387   26.6108   27.0536   27.5897   28.7591   34.5381   37.2481   38.3405   41.5067
   44.5860   45.1667   47.9083   48.1391   48.5372   48.6192   55.0283   57.9593   66.8398   67.1086
   68.8217   70.8821   71.1501
   5  1  -19.0139  -13.2423  -12.3574  -11.3399  -11.3032  -10.7973  -10.4670  -10.4165  -10.2734  -10.1392
          -8.9655   -7.6726   -4.9562   -4.4364   -3.9253   -3.9249   -3.2515   -2.8510   -2.7764   -2.5958
   -2.1359   -0.9977   -0.7227   -0.7052   -0.5630   -0.1756   -0.0813    3.7547    3.9729    4.4311
    5.4029    6.8124    7.9096   11.7428   11.9098   12.4308   12.8076   12.8791   13.1012   13.8913
   15.1945   15.3143   15.6069   17.9300   20.2679   20.3164   21.7956   22.6946   23.3849   23.7125
   25.4613   25.5745   27.0124   28.1172   28.2701   29.3518   30.3523   33.5102   34.9119   36.3401
   46.1405   47.4543   49.6941   49.7627   50.2602   51.0420   54.1847   61.9595   64.2562   66.9920
   67.8532   77.3075   83.7715
   6  1  -19.1058  -13.4861  -12.0619  -11.6193  -10.6238  -10.2767  -10.2297   -9.9891   -9.9889   -9.9121
          -9.8076   -7.4359   -3.5520   -3.1462   -3.1462   -2.7819   -2.7819   -2.5867   -2.5867   -2.5410
   -2.5409   -0.6077   -0.6077   -0.5130   -0.5130   -0.2580   -0.2579    0.9887    0.9888    7.6473
    9.3916   10.5416   10.5417   12.2725   12.2726   14.0122   15.7680   15.7680   19.2101   19.2101
   21.1055   21.1055   23.8943   23.8944   24.2718   24.2720   24.6384   24.6384   24.7971   25.9555
   26.7235   28.7448   28.7448   34.9646   39.3626   39.3626   41.2381   41.2382   48.5024   48.6096
   50.3203   50.3205   51.7285   51.7285   51.8427   52.0931   53.5727   59.9081   61.9662   62.9437
   62.9437   75.5139   75.5139
   7  1  -18.8954  -12.9081  -12.3585  -11.4536  -11.4367  -10.7845  -10.6931  -10.5393  -10.2788   -9.6671
          -8.1473   -8.1451   -7.4504   -6.3126   -4.3425   -4.3107   -3.2961   -3.2458   -2.6091   -1.4986
   -1.1046   -1.0587    0.0237    0.4979    2.1974    2.2329    2.7755    2.8767    2.9263    2.9423
    3.0465    5.2918    5.4047    6.2744    8.5873    8.9367    9.8166   10.8180   11.8544   13.4810
   13.6390   15.2873   17.4165   18.2416   18.7942   19.0862   20.1461   20.6841   21.5824   22.8148
   22.8609   25.5319   25.9660   26.4117   27.0429   27.4385   27.9243   28.4725   30.8899   37.6266
   40.3939   54.0651   54.2866   54.4316   54.4597   54.8869   58.2696   58.5669   61.3145   81.1543
   81.5262   86.3156  113.9841
   8  1  -18.8940  -12.8775  -12.1807  -11.3392  -11.1874  -11.1863  -10.8399  -10.4897  -10.0622   -9.8059
          -8.1142   -7.7831   -6.3039   -6.1467   -6.1225   -4.9363   -3.0372   -2.9351   -2.8252   -2.7200
   -1.9669    1.0418    2.2016    2.4682    2.6747    2.7756    3.0857    3.4615    3.6436    4.1987
    4.8199    6.2329    6.7774    7.9891    8.7599    8.8833    9.7730   10.1561   10.7065   13.0819
[...]
          -8.1821   -8.1650   -6.5081   -5.9328   -5.6592   -5.4664   -3.2669   -3.0626   -2.8587   -2.4802
   -1.5513   -0.4520    2.1732    2.4629    2.7170    2.7787    3.0714    3.1171    3.2070    3.8723
    3.9037    3.9924    6.4468    8.0526    8.8589    8.9048    9.1126    9.1750   12.4452   13.2563
   14.6461   15.3311   16.7815   17.4504   18.2371   20.0859   20.9562   21.9870   23.4216   24.3776
   24.7269   25.4363   26.2274   26.6563   27.4046   27.6933   28.8497   28.8955   33.9460   36.4989
   42.7950   42.8946   44.1693   47.9325   48.1935   48.1966   48.1976   61.1739   61.7758   65.6272
   66.4117   66.7882   68.0024
  44  1  -18.9016  -12.8992  -12.3687  -11.5578  -11.1560  -10.8660  -10.5876  -10.2893  -10.2827  -10.1539
          -8.9431   -7.9771   -7.3768   -6.7720   -4.5412   -3.8414   -3.5249   -2.6387   -2.6304   -2.1537
   -1.3800   -0.6134    0.2863    0.4424    2.2117    2.5521    2.5538    2.8862    2.9231    2.9771
    3.0107    3.7455    4.2570    4.2912    7.9829    8.7858   10.8950   11.5837   11.7289   13.2312
   14.1350   14.6583   14.7719   15.4125   15.5917   17.2851   20.3937   22.9478   23.0834   23.1250
   23.3361   24.3154   25.5632   26.7335   26.7986   27.4004   27.9903   27.9968   28.1163   28.4238
   31.6592   50.0886   54.5490   54.6776   54.7807   55.5291   56.7423   56.7817   60.0904   60.6418
   60.9522   61.6058   66.0460
siesta: Fermi energy =     -10.308603 eV

siesta: Program's energy decomposition (eV):
siesta: Ebs     =      -197.874719
siesta: Eions   =       380.620085
siesta: Ena     =       125.883538
siesta: Ekin    =       162.239193
siesta: Enl     =        31.114569
siesta: Eso     =         0.000000
siesta: Edftu   =         0.000000
siesta: DEna    =        -3.161557
siesta: DUscf   =         4.139237
siesta: DUext   =         0.000000
siesta: Exc     =      -149.216537
siesta: eta*DQ  =         0.000000
siesta: Emadel  =         0.000000
siesta: Emeta   =         0.000000
siesta: Emolmec =        -4.868533
siesta: Ekinion =         0.000000
siesta: Eharris =      -214.490177
siesta: Etot    =      -214.490176
siesta: FreeEng =      -214.519507

siesta: Final energy (eV):
siesta:  Band Struct. =    -197.874719
siesta:       Kinetic =     162.239193
siesta:       Hartree =      84.363351
siesta:       Edftu   =       0.000000
siesta:       Eso     =       0.000000
siesta:    Ext. field =       0.000000
siesta:   Exch.-corr. =    -149.216537
siesta:  Ion-electron =    -375.073272
siesta:       Ion-ion =      68.065624
siesta:       Ekinion =       0.000000
siesta:         Total =    -214.490176
siesta:         Fermi =     -10.308603

siesta: Atomic forces (eV/Ang):
siesta:      1   -0.000000   -0.000000   -0.000000
siesta:      2   -0.315692   -0.000014   -0.363781
siesta:      3    0.315692    0.000014    0.363781
siesta:      4    0.157834   -0.273405   -0.363781
siesta:      5   -0.157833    0.273404    0.363781
siesta:      6    0.157822    0.273356   -0.363826
siesta:      7   -0.157822   -0.273355    0.363826
siesta:      8    0.315692    0.000014   -0.363781
siesta:      9   -0.315692   -0.000014    0.363781
siesta:     10   -0.157834    0.273405   -0.363781
siesta:     11    0.157833   -0.273404    0.363781
siesta:     12   -0.157822   -0.273356   -0.363826
siesta:     13    0.157822    0.273355    0.363826
siesta: ----------------------------------------
siesta:    Tot    0.000000   -0.000000   -0.000000

siesta: Stress tensor (static) (eV/Ang**3):
siesta:    -0.486486   -0.000002   -0.000000
siesta:    -0.000002   -0.486488   -0.000000
siesta:     0.000000   -0.000000    0.116160

siesta: Cell volume =        164.013559 Ang**3

siesta: Pressure (static):
siesta:                Solid            Molecule  Units
siesta:           0.00311060          0.00279973  Ry/Bohr**3
siesta:           0.28560474          0.25706207  eV/Ang**3
siesta:         457.59419173        411.86329630  kBar
(Free)E+ p_basis*V_orbitals  =        -176.583435
(Free)Eharris+ p_basis*V_orbitals  =        -176.583437

cite: Please see "LiC12_scf.bib" for an exhaustive BiBTeX file.
cite: Please clearly indicate Siesta version in published work: 4.1.5
cite: This calculation has made use of the following articles
cite: which are encouraged to be cited in a published work.
        Primary SIESTA paper
          DOI: www.doi.org/10.1088/0953-8984/14/11/302

>> End of run:   9-NOV-2022   8:08:07
Job completed